Au Hg
 1.0000000000000000
     8.6549870017233435    0.0000000000000000    0.0000000000000000
     4.3274935008616717    7.4954386129165247    0.0000000000000000
     0.0000000000000000    0.0000000000000000   27.0667672948810178
 Au  Hg 
  36   1
Selective dynamics
Direct
  0.0000000000000000  0.0000000000000000  0.3694567545157579   F   F   F
  0.3333333333333333  0.0000000000000000  0.3694567545157579   F   F   F
  0.6666666666666666  0.0000000000000000  0.3694567545157579   F   F   F
  0.0000000000000000  0.3333333333333333  0.3694567545157579   F   F   F
  0.3333333333333334  0.3333333333333333  0.3694567545157579   F   F   F
  0.6666666666666666  0.3333333333333333  0.3694567545157579   F   F   F
  0.0000000000000000  0.6666666666666666  0.3694567545157579   F   F   F
  0.3333333333333333  0.6666666666666666  0.3694567545157579   F   F   F
  0.6666666666666667  0.6666666666666666  0.3694567545157579   F   F   F
  0.1109997083836921  0.1113339165659482  0.4634439334189648   T   T   T
  0.4442510526701177  0.1115913675228072  0.4645150960393353   T   T   T
  0.7774909131404084  0.1115913675228067  0.4645150960393353   T   T   T
  0.1106387099922883  0.4454863353349657  0.4650147881804350   T   T   T
  0.4443740651066528  0.4445852031200275  0.4657859094869195   T   T   T
  0.7772082880060790  0.4454863353349660  0.4650147881804346   T   T   T
  0.1111408052664559  0.7771692402889474  0.4638135380956185   T   T   T
  0.4450232877779292  0.7771692402889467  0.4638135380956178   T   T   T
  0.7781325197094329  0.7770682939144675  0.4648472680775876   T   T   T
 -0.1105478480917433  0.2217602777720200  0.5585060031143476   T   T   T
  0.2221209036530562  0.2217602777720201  0.5585060031143482   T   T   T
  0.5557323453554256  0.2218686426224821  0.5589908494213758   T   T   T
 -0.1112053362874228  0.5557440059081789  0.5589263694461079   T   T   T
  0.2224828736114215  0.5558431131083267  0.5596217857680545   T   T   T
  0.5550073466135860  0.5558431131083265  0.5596217857680539   T   T   T
 -0.1107662391074067  0.8894323800773740  0.5582308720777187   T   T   T
  0.2224134325316657  0.8885064682700018  0.5568477650733198   T   T   T
  0.5546671923633681  0.8894323800773740  0.5582308720777187   T   T   T
 -0.0009125746997918 -0.0003488775699274  0.6513452894825584   T   T   T
  0.3345947856030523 -0.0003488775699276  0.6513452894825584   T   T   T
  0.6668138470779439 -0.0002943608225546  0.6534082197956027   T   T   T
 -0.0003732110545898  0.3340797554425129  0.6553483415612279   T   T   T
  0.3332160269647521  0.3324763922735377  0.6538663391808084   T   T   T
  0.6676409140950437  0.3324763922735372  0.6538663391808084   T   T   T
 -0.0000046983036696  0.6673285268644571  0.6535988938601650   T   T   T
  0.3337469851485978  0.6658393630361377  0.6566422358331723   T   T   T
  0.6660095047725434  0.6673285268644570  0.6535988938601650   T   T   T
  0.1667072886249174 -0.0000812439165016  0.7506203219945793   T   T   T
