Au Hg
 1.0000000000000000
     8.6549870017233435    0.0000000000000000    0.0000000000000000
     4.3274935008616717    7.4954386129165247    0.0000000000000000
     0.0000000000000000    0.0000000000000000   27.0667672948810178
 Au  Hg 
  36   1
Selective dynamics
Direct
  0.0000000000000000  0.0000000000000000  0.3694567545157579   F   F   F
  0.3333333333333333  0.0000000000000000  0.3694567545157579   F   F   F
  0.6666666666666666  0.0000000000000000  0.3694567545157579   F   F   F
  0.0000000000000000  0.3333333333333333  0.3694567545157579   F   F   F
  0.3333333333333334  0.3333333333333333  0.3694567545157579   F   F   F
  0.6666666666666666  0.3333333333333333  0.3694567545157579   F   F   F
  0.0000000000000000  0.6666666666666666  0.3694567545157579   F   F   F
  0.3333333333333333  0.6666666666666666  0.3694567545157579   F   F   F
  0.6666666666666667  0.6666666666666666  0.3694567545157579   F   F   F
  0.1106387099922871  0.1121530020016331  0.4650147881804351   T   T   T
  0.4443740651066524  0.1112518697866950  0.4657859094869202   T   T   T
  0.7772082880060800  0.1121530020016334  0.4650147881804351   T   T   T
  0.1111408052664566  0.4438359069556134  0.4638135380956180   T   T   T
  0.4450232877779300  0.4438359069556147  0.4638135380956187   T   T   T
  0.7781325197094323  0.4437349605811353  0.4648472680775872   T   T   T
  0.1109997083836924  0.7780005832326152  0.4634439334189654   T   T   T
  0.4442510526701176  0.7782580341894751  0.4645150960393355   T   T   T
  0.7774909131404094  0.7782580341894741  0.4645150960393355   T   T   T
 -0.1112053362874230  0.2224106725748461  0.5589263694461101   T   T   T
  0.2224828736114198  0.2225097797749933  0.5596217857680551   T   T   T
  0.5550073466135861  0.2225097797749931  0.5596217857680551   T   T   T
 -0.1107662391074079  0.5560990467440412  0.5582308720777180   T   T   T
  0.2224134325316667  0.5551731349366665  0.5568477650733186   T   T   T
  0.5546671923633657  0.5560990467440421  0.5582308720777178   T   T   T
 -0.1105478480917443  0.8884269444386885  0.5585060031143481   T   T   T
  0.2221209036530554  0.8884269444386887  0.5585060031143481   T   T   T
  0.5557323453554249  0.8885353092891501  0.5589908494213743   T   T   T
 -0.0003732110545890  0.0007464221091790  0.6553483415612301   T   T   T
  0.3332160269647529 -0.0008569410597966  0.6538663391808076   T   T   T
  0.6676409140950432 -0.0008569410597966  0.6538663391808076   T   T   T
 -0.0000046983036687  0.3339951935311240  0.6535988938601679   T   T   T
  0.3337469851485986  0.3325060297028029  0.6566422358331713   T   T   T
  0.6660095047725454  0.3339951935311234  0.6535988938601656   T   T   T
 -0.0009125746997906  0.6663177890967383  0.6513452894825565   T   T   T
  0.3345947856030519  0.6663177890967390  0.6513452894825582   T   T   T
  0.6668138470779437  0.6663723058441127  0.6534082197955999   T   T   T
  0.1667072886249163 -0.3334145772498342  0.7506203219945784   T   T   T
