Au Hg
 1.0000000000000000
     8.6549870017233435    0.0000000000000000    0.0000000000000000
     4.3274935008616717    7.4954386129165247    0.0000000000000000
     0.0000000000000000    0.0000000000000000   27.0667672948810178
 Au  Hg 
  36   1
Selective dynamics
Direct
  0.0000000000000000  0.0000000000000000  0.3694567545157579   F   F   F
  0.3333333333333333  0.0000000000000000  0.3694567545157579   F   F   F
  0.6666666666666666  0.0000000000000000  0.3694567545157579   F   F   F
  0.0000000000000000  0.3333333333333333  0.3694567545157579   F   F   F
  0.3333333333333334  0.3333333333333333  0.3694567545157579   F   F   F
  0.6666666666666666  0.3333333333333333  0.3694567545157579   F   F   F
  0.0000000000000000  0.6666666666666666  0.3694567545157579   F   F   F
  0.3333333333333333  0.6666666666666666  0.3694567545157579   F   F   F
  0.6666666666666667  0.6666666666666666  0.3694567545157579   F   F   F
  0.1105416213394132  0.1121530020016320  0.4650147881804355   T   T   T
  0.4439720433256208  0.1121530020016323  0.4650147881804357   T   T   T
  0.7777073984399862  0.1112518697866943  0.4657859094869199   T   T   T
  0.1114658530427664  0.4437349605811338  0.4648472680775877   T   T   T
  0.4444741385997909  0.4438359069556133  0.4638135380956187   T   T   T
  0.7783566211112632  0.4438359069556134  0.4638135380956185   T   T   T
  0.1108242464737411  0.7782580341894739  0.4645150960393354   T   T   T
  0.4443330417170258  0.7780005832326149  0.4634439334189659   T   T   T
  0.7775843860034506  0.7782580341894735  0.4645150960393354   T   T   T
 -0.1116593200530804  0.2225097797749929  0.5596217857680534   T   T   T
  0.2221279970459109  0.2224106725748448  0.5589263694461087   T   T   T
  0.5558162069447540  0.2225097797749926  0.5596217857680543   T   T   T
 -0.1119994743032998  0.5560990467440412  0.5582308720777184   T   T   T
  0.2225670942259263  0.5560990467440412  0.5582308720777184   T   T   T
  0.5557467658649989  0.5551731349366688  0.5568477650733198   T   T   T
 -0.1109343213112407  0.8885353092891480  0.5589908494213757   T   T   T
  0.2227854852415911  0.8884269444386872  0.5585060031143493   T   T   T
  0.5554542369863886  0.8884269444386881  0.5585060031143498   T   T   T
  0.0009742474283773 -0.0008569410597958  0.6538663391808082   T   T   T
  0.3329601222787441  0.0007464221091785  0.6553483415612352   T   T   T
  0.6665493602980856 -0.0008569410597955  0.6538663391808104   T   T   T
 -0.0006571618941219  0.3339951935311239  0.6535988938601635   T   T   T
  0.3333286350296649  0.3339951935311224  0.6535988938601635   T   T   T
  0.6670803184819312  0.3325060297028040  0.6566422358331709   T   T   T
  0.0001471804112777  0.6663723058441114  0.6534082197956036   T   T   T
  0.3324207586335430  0.6663177890967384  0.6513452894825593   T   T   T
  0.6679281189363880  0.6663177890967381  0.6513452894825593   T   T   T
  0.5000406219582513  0.6665854227501641  0.7506203219945800   T   T   T
