Au Hg
 1.0000000000000000
     8.6549870017233435    0.0000000000000000    0.0000000000000000
     4.3274935008616717    7.4954386129165247    0.0000000000000000
     0.0000000000000000    0.0000000000000000   27.0667672948810178
 Au  Hg 
  36   1
Selective dynamics
Direct
  0.0000000000000000  0.0000000000000000  0.3694567545157579   F   F   F
  0.3333333333333333  0.0000000000000000  0.3694567545157579   F   F   F
  0.6666666666666666  0.0000000000000000  0.3694567545157579   F   F   F
  0.0000000000000000  0.3333333333333333  0.3694567545157579   F   F   F
  0.3333333333333334  0.3333333333333333  0.3694567545157579   F   F   F
  0.6666666666666666  0.3333333333333333  0.3694567545157579   F   F   F
  0.0000000000000000  0.6666666666666666  0.3694567545157579   F   F   F
  0.3333333333333333  0.6666666666666666  0.3694567545157579   F   F   F
  0.6666666666666667  0.6666666666666666  0.3694567545157579   F   F   F
  0.1106387099922886  0.1105416213394125  0.4650147881804350   T   T   T
  0.4442510526701181  0.1108242464737416  0.4645150960393358   T   T   T
  0.7781325197094333  0.1114658530427653  0.4648472680775879   T   T   T
  0.1109997083836922  0.4443330417170256  0.4634439334189655   T   T   T
  0.4450232877779295  0.4444741385997907  0.4638135380956188   T   T   T
  0.7772082880060801  0.4439720433256217  0.4650147881804350   T   T   T
  0.1111408052664565  0.7783566211112622  0.4638135380956190   T   T   T
  0.4443740651066529  0.7777073984399852  0.4657859094869206   T   T   T
  0.7774909131404082  0.7775843860034501  0.4645150960393364   T   T   T
 -0.1112053362874230  0.2221279970459089  0.5589263694461085   T   T   T
  0.2221209036530561  0.2227854852415885  0.5585060031143487   T   T   T
  0.5546671923633665  0.2225670942259243  0.5582308720777192   T   T   T
 -0.1105478480917442  0.5554542369863885  0.5585060031143489   T   T   T
  0.2224134325316665  0.5557467658649988  0.5568477650733201   T   T   T
  0.5550073466135872  0.5558162069447526  0.5596217857680550   T   T   T
 -0.1107662391074080  0.8880005256966992  0.5582308720777204   T   T   T
  0.2224828736114198  0.8883406799469196  0.5596217857680561   T   T   T
  0.5557323453554260  0.8890656786887579  0.5589908494213760   T   T   T
 -0.0000046983036699 -0.0006571618941222  0.6535988938601702   T   T   T
  0.3332160269647516  0.0009742474283764  0.6538663391808093   T   T   T
  0.6668138470779426  0.0001471804112760  0.6534082197956035   T   T   T
 -0.0003732110545900  0.3329601222787431  0.6553483415612280   T   T   T
  0.3345947856030501  0.3324207586335430  0.6513452894825583   T   T   T
  0.6660095047725448  0.3333286350296624  0.6535988938601679   T   T   T
 -0.0009125746997905  0.6679281189363829  0.6513452894825583   T   T   T
  0.3337469851485976  0.6670803184819295  0.6566422358331691   T   T   T
  0.6676409140950432  0.6665493602980838  0.6538663391808093   T   T   T
  0.1667072886249195  0.5000406219582513  0.7506203219945797   T   T   T
