Au Hg
 1.0000000000000000
     8.6549870017233435    0.0000000000000000    0.0000000000000000
     4.3274935008616717    7.4954386129165247    0.0000000000000000
     0.0000000000000000    0.0000000000000000   27.0667672948810178
 Au  Hg 
  36   1
Selective dynamics
Direct
  0.0000000000000000  0.0000000000000000  0.3694567545157579   F   F   F
  0.3333333333333333  0.0000000000000000  0.3694567545157579   F   F   F
  0.6666666666666666  0.0000000000000000  0.3694567545157579   F   F   F
  0.0000000000000000  0.3333333333333333  0.3694567545157579   F   F   F
  0.3333333333333334  0.3333333333333333  0.3694567545157579   F   F   F
  0.6666666666666666  0.3333333333333333  0.3694567545157579   F   F   F
  0.0000000000000000  0.6666666666666666  0.3694567545157579   F   F   F
  0.3333333333333333  0.6666666666666666  0.3694567545157579   F   F   F
  0.6666666666666667  0.6666666666666666  0.3694567545157579   F   F   F
  0.1109177193367846  0.1115913675228069  0.4645150960393349   T   T   T
  0.4441575798070761  0.1115913675228066  0.4645150960393349   T   T   T
  0.7776663750503593  0.1113339165659481  0.4634439334189658   T   T   T
  0.1110407317733200  0.4445852031200274  0.4657859094869192   T   T   T
  0.4438749546727472  0.4454863353349660  0.4650147881804350   T   T   T
  0.7773053766589574  0.4454863353349656  0.4650147881804350   T   T   T
  0.1116899544445974  0.7771692402889461  0.4638135380956177   T   T   T
  0.4447991863760994  0.7770682939144676  0.4648472680775875   T   T   T
  0.7778074719331233  0.7771692402889468  0.4638135380956184   T   T   T
 -0.1112124296802768  0.2217602777720198  0.5585060031143485   T   T   T
  0.2223990120220915  0.2218686426224836  0.5589908494213740   T   T   T
  0.5561188185749240  0.2217602777720201  0.5585060031143485   T   T   T
 -0.1108504597219131  0.5558431131083258  0.5596217857680548   T   T   T
  0.2216740132802530  0.5558431131083280  0.5596217857680547   T   T   T
  0.5554613303792433  0.5557440059081800  0.5589263694461090   T   T   T
 -0.1109199008016668  0.8885064682700002  0.5568477650733197   T   T   T
  0.2213338590300337  0.8894323800773730  0.5582308720777178   T   T   T
  0.5559004275592585  0.8894323800773751  0.5582308720777178   T   T   T
  0.0012614522697201 -0.0003488775699284  0.6513452894825585   T   T   T
  0.3334805137446109 -0.0002943608225553  0.6534082197955995   T   T   T
  0.6657540919668752 -0.0003488775699282  0.6513452894825585   T   T   T
 -0.0001173063685804  0.3324763922735368  0.6538663391808079   T   T   T
  0.3343075807617094  0.3324763922735371  0.6538663391808078   T   T   T
  0.6662934556120775  0.3340797554425114  0.6553483415612285   T   T   T
  0.0004136518152647  0.6658393630361372  0.6566422358331678   T   T   T
  0.3326761714392137  0.6673285268644562  0.6535988938601670   T   T   T
  0.6666619683629978  0.6673285268644562  0.6535988938601676   T   T   T
 -0.1666260447084160 -0.0000812439165014  0.7506203219945798   T   T   T
