Au Hg
 1.0000000000000000
     8.6549870017233435    0.0000000000000000    0.0000000000000000
     4.3274935008616717    7.4954386129165247    0.0000000000000000
     0.0000000000000000    0.0000000000000000   27.0667672948810178
 Au  Hg 
  36   1
Selective dynamics
Direct
  0.0000000000000000  0.0000000000000000  0.3694567545157579   F   F   F
  0.3333333333333333  0.0000000000000000  0.3694567545157579   F   F   F
  0.6666666666666666  0.0000000000000000  0.3694567545157579   F   F   F
  0.0000000000000000  0.3333333333333333  0.3694567545157579   F   F   F
  0.3333333333333334  0.3333333333333333  0.3694567545157579   F   F   F
  0.6666666666666666  0.3333333333333333  0.3694567545157579   F   F   F
  0.0000000000000000  0.6666666666666666  0.3694567545157579   F   F   F
  0.3333333333333333  0.6666666666666666  0.3694567545157579   F   F   F
  0.6666666666666667  0.6666666666666666  0.3694567545157579   F   F   F
  0.1116899544445966  0.1111408052664564  0.4638135380956190   T   T   T
  0.4438749546727459  0.1106387099922878  0.4650147881804348   T   T   T
  0.7776663750503591  0.1109997083836928  0.4634439334189649   T   T   T
  0.1110407317733196  0.4443740651066524  0.4657859094869196   T   T   T
  0.4441575798070748  0.4442510526701174  0.4645150960393352   T   T   T
  0.7778074719331219  0.4450232877779301  0.4638135380956188   T   T   T
  0.1109177193367841  0.7774909131404085  0.4645150960393352   T   T   T
  0.4447991863760985  0.7781325197094331  0.4648472680775884   T   T   T
  0.7773053766589554  0.7772082880060776  0.4650147881804348   T   T   T
 -0.1109199008016680  0.2224134325316664  0.5568477650733196   T   T   T
  0.2216740132802525  0.2224828736114201  0.5596217857680552   T   T   T
  0.5561188185749218  0.2221209036530557  0.5585060031143484   T   T   T
 -0.1108504597219142  0.5550073466135870  0.5596217857680540   T   T   T
  0.2223990120220912  0.5557323453554259  0.5589908494213740   T   T   T
  0.5559004275592567  0.5546671923633658  0.5582308720777188   T   T   T
 -0.1112124296802793  0.8894521519082573  0.5585060031143484   T   T   T
  0.2213338590300324  0.8892337608925918  0.5582308720777188   T   T   T
  0.5554613303792427  0.8887946637125776  0.5589263694461093   T   T   T
  0.0012614522697173 -0.0009125746997897  0.6513452894825583   T   T   T
  0.3326761714392107 -0.0000046983036687  0.6535988938601676   T   T   T
  0.6662934556120766 -0.0003732110545892  0.6553483415612293   T   T   T
  0.0004136518152642  0.3337469851485992  0.6566422358331697   T   T   T
  0.3343075807617100  0.3332160269647523  0.6538663391808072   T   T   T
  0.6657540919668771  0.3345947856030517  0.6513452894825583   T   T   T
 -0.0001173063685821  0.6676409140950446  0.6538663391808072   T   T   T
  0.3334805137446092  0.6668138470779448  0.6534082197956037   T   T   T
  0.6666619683629980  0.6660095047725442  0.6535988938601672   T   T   T
 -0.1666260447084163  0.1667072886249171  0.7506203219945802   T   T   T
