Au Hg
 1.0000000000000000
     8.6549870017233435    0.0000000000000000    0.0000000000000000
     4.3274935008616717    7.4954386129165247    0.0000000000000000
     0.0000000000000000    0.0000000000000000   27.0667672948810178
 Au  Hg 
  36   1
Selective dynamics
Direct
  0.0000000000000000  0.0000000000000000  0.3694567545157579   F   F   F
  0.3333333333333333  0.0000000000000000  0.3694567545157579   F   F   F
  0.6666666666666666  0.0000000000000000  0.3694567545157579   F   F   F
  0.0000000000000000  0.3333333333333333  0.3694567545157579   F   F   F
  0.3333333333333334  0.3333333333333333  0.3694567545157579   F   F   F
  0.6666666666666666  0.3333333333333333  0.3694567545157579   F   F   F
  0.0000000000000000  0.6666666666666666  0.3694567545157579   F   F   F
  0.3333333333333333  0.6666666666666666  0.3694567545157579   F   F   F
  0.6666666666666667  0.6666666666666666  0.3694567545157579   F   F   F
  0.1108242464737420  0.1109177193367847  0.4645150960393359   T   T   T
  0.4444741385997903  0.1116899544445967  0.4638135380956193   T   T   T
  0.7777073984399863  0.1110407317733198  0.4657859094869196   T   T   T
  0.1114658530427659  0.4447991863761002  0.4648472680775886   T   T   T
  0.4439720433256200  0.4438749546727471  0.4650147881804356   T   T   T
  0.7775843860034518  0.4441575798070760  0.4645150960393351   T   T   T
  0.1105416213394139  0.7773053766589545  0.4650147881804361   T   T   T
  0.4443330417170256  0.7776663750503587  0.4634439334189654   T   T   T
  0.7783566211112645  0.7778074719331226  0.4638135380956181   T   T   T
 -0.1109343213112426  0.2223990120220924  0.5589908494213746   T   T   T
  0.2225670942259240  0.2213338590300333  0.5582308720777198   T   T   T
  0.5558162069447504  0.2216740132802538  0.5596217857680554   T   T   T
 -0.1119994743032998  0.5559004275592581  0.5582308720777193   T   T   T
  0.2221279970459105  0.5554613303792424  0.5589263694461133   T   T   T
  0.5554542369863867  0.5561188185749230  0.5585060031143477   T   T   T
 -0.1116593200530804  0.8891495402780852  0.5596217857680549   T   T   T
  0.2227854852415900  0.8887875703197209  0.5585060031143492   T   T   T
  0.5557467658649989  0.8890800991983329  0.5568477650733190   T   T   T
  0.0009742474283771 -0.0001173063685809  0.6538663391808055   T   T   T
  0.3324207586335429  0.0012614522697187  0.6513452894825584   T   T   T
  0.6670803184819323  0.0004136518152645  0.6566422358331704   T   T   T
  0.0001471804112770  0.3334805137446105  0.6534082197956049   T   T   T
  0.3333286350296639  0.3326761714392117  0.6535988938601723   T   T   T
  0.6665493602980864  0.3343075807617107  0.6538663391808063   T   T   T
 -0.0006571618941225  0.6666619683629985  0.6535988938601709   T   T   T
  0.3329601222787444  0.6662934556120769  0.6553483415612354   T   T   T
  0.6679281189363849  0.6657540919668764  0.6513452894825550   T   T   T
  0.5000406219582550 -0.1666260447084190  0.7506203219945768   T   T   T
