Au Hg
 1.0000000000000000
     8.6549870017233435    0.0000000000000000    0.0000000000000000
     4.3274935008616717    7.4954386129165247    0.0000000000000000
     0.0000000000000000    0.0000000000000000   27.0667672948810178
 Au  Hg 
  36   1
Selective dynamics
Direct
  0.0000000000000000  0.0000000000000000  0.3694567545157579   F   F   F
  0.3333333333333333  0.0000000000000000  0.3694567545157579   F   F   F
  0.6666666666666666  0.0000000000000000  0.3694567545157579   F   F   F
  0.0000000000000000  0.3333333333333333  0.3694567545157579   F   F   F
  0.3333333333333334  0.3333333333333333  0.3694567545157579   F   F   F
  0.6666666666666666  0.3333333333333333  0.3694567545157579   F   F   F
  0.0000000000000000  0.6666666666666666  0.3694567545157579   F   F   F
  0.3333333333333333  0.6666666666666666  0.3694567545157579   F   F   F
  0.6666666666666667  0.6666666666666666  0.3694567545157579   F   F   F
  0.1104016272478010  0.1114658530427658  0.4648472680775869   T   T   T
  0.4449247008561409  0.1108242464737417  0.4645150960393355   T   T   T
  0.7788196686682990  0.1105416213394122  0.4650147881804350   T   T   T
  0.1105025736222804  0.4444741385997893  0.4638135380956188   T   T   T
  0.4446672498992819  0.4443330417170249  0.4634439334189646   T   T   T
  0.7788196686682992  0.4439720433256215  0.4650147881804350   T   T   T
  0.1105025736222813  0.7783566211112619  0.4638135380956188   T   T   T
  0.4449247008561415  0.7775843860034490  0.4645150960393355   T   T   T
  0.7779185364533593  0.7777073984399860  0.4657859094869198   T   T   T
 -0.1109226607584868  0.2221279970459089  0.5589263694461084   T   T   T
  0.2227657134107077  0.2225670942259241  0.5582308720777185   T   T   T
  0.5550936111053543  0.2227854852415884  0.5585060031143481   T   T   T
 -0.1108235535583399  0.5558162069447509  0.5596217857680540   T   T   T
  0.2218398016033343  0.5557467658649978  0.5568477650733195   T   T   T
  0.5550936111053538  0.5554542369863887  0.5585060031143479   T   T   T
 -0.1108235535583404  0.8883406799469192  0.5596217857680547   T   T   T
  0.2227657134107078  0.8880005256966998  0.5582308720777182   T   T   T
  0.5552019759558180  0.8890656786887567  0.5589908494213740   T   T   T
  0.0006618601977907 -0.0006571618941227  0.6535988938601670   T   T   T
  0.3330389725107797  0.0001471804112754  0.6534082197956023   T   T   T
  0.6658097256068700  0.0009742474283763  0.6538663391808082   T   T   T
  0.0006618601977905  0.3333286350296630  0.6535988938601670   T   T   T
  0.3329844557634048  0.3324207586335424  0.6513452894825579   T   T   T
  0.6674130887758454  0.3329601222787432  0.6553483415612273   T   T   T
 -0.0008273036305299  0.6670803184819297  0.6566422358331701   T   T   T
  0.3329844557634045  0.6679281189363853  0.6513452894825579   T   T   T
  0.6658097256068717  0.6665493602980846  0.6538663391808082   T   T   T
  0.3332520894168341  0.5000406219582491  0.7506203219945784   T   T   T
