Au Hg
 1.0000000000000000
     8.6549870017233435    0.0000000000000000    0.0000000000000000
     4.3274935008616717    7.4954386129165247    0.0000000000000000
     0.0000000000000000    0.0000000000000000   27.0667672948810178
 Au  Hg 
  36   1
Selective dynamics
Direct
  0.0000000000000000  0.0000000000000000  0.3694567545157579   F   F   F
  0.3333333333333333  0.0000000000000000  0.3694567545157579   F   F   F
  0.6666666666666666  0.0000000000000000  0.3694567545157579   F   F   F
  0.0000000000000000  0.3333333333333333  0.3694567545157579   F   F   F
  0.3333333333333334  0.3333333333333333  0.3694567545157579   F   F   F
  0.6666666666666666  0.3333333333333333  0.3694567545157579   F   F   F
  0.0000000000000000  0.6666666666666666  0.3694567545157579   F   F   F
  0.3333333333333333  0.6666666666666666  0.3694567545157579   F   F   F
  0.6666666666666667  0.6666666666666666  0.3694567545157579   F   F   F
  0.1113339165659492  0.1109997083836925  0.4634439334189654   T   T   T
  0.4454863353349665  0.1106387099922880  0.4650147881804356   T   T   T
  0.7771692402889485  0.1111408052664573  0.4638135380956185   T   T   T
  0.1115913675228087  0.4442510526701179  0.4645150960393362   T   T   T
  0.4445852031200291  0.4443740651066528  0.4657859094869195   T   T   T
  0.7771692402889488  0.4450232877779297  0.4638135380956185   T   T   T
  0.1115913675228083  0.7774909131404080  0.4645150960393362   T   T   T
  0.4454863353349657  0.7772082880060797  0.4650147881804356   T   T   T
  0.7770682939144695  0.7781325197094332  0.4648472680775879   T   T   T
 -0.1114935317299966  0.2224134325316655  0.5568477650733195   T   T   T
  0.2217602777720232  0.2221209036530550  0.5585060031143484   T   T   T
  0.5558431131083285  0.2224828736114186  0.5596217857680537   T   T   T
 -0.1105676199226224  0.5546671923633656  0.5582308720777192   T   T   T
  0.2218686426224833  0.5557323453554257  0.5589908494213754   T   T   T
  0.5558431131083286  0.5550073466135841  0.5596217857680534   T   T   T
 -0.1105676199226231  0.8892337608925907  0.5582308720777203   T   T   T
  0.2217602777720239  0.8894521519082552  0.5585060031143484   T   T   T
  0.5557440059081810  0.8887946637125762  0.5589263694461094   T   T   T
 -0.0003488775699271 -0.0009125746997895  0.6513452894825580   T   T   T
  0.3340797554425124 -0.0003732110545903  0.6553483415612289   T   T   T
  0.6673285268644581 -0.0000046983036697  0.6535988938601673   T   T   T
 -0.0003488775699268  0.3345947856030500  0.6513452894825580   T   T   T
  0.3324763922735390  0.3332160269647510  0.6538663391808075   T   T   T
  0.6658393630361384  0.3337469851485963  0.6566422358331697   T   T   T
 -0.0002943608225535  0.6668138470779429  0.6534082197956048   T   T   T
  0.3324763922735373  0.6676409140950424  0.6538663391808075   T   T   T
  0.6673285268644568  0.6660095047725443  0.6535988938601662   T   T   T
 -0.0000812439165011  0.1667072886249171  0.7506203219945790   T   T   T
