Au Hg
 1.0000000000000000
     8.6549870017233435    0.0000000000000000    0.0000000000000000
     4.3274935008616717    7.4954386129165247    0.0000000000000000
     0.0000000000000000    0.0000000000000000   27.0667672948810178
 Au  Hg 
  36   1
Selective dynamics
Direct
  0.0000000000000000  0.0000000000000000  0.3694567545157579   F   F   F
  0.3333333333333333  0.0000000000000000  0.3694567545157579   F   F   F
  0.6666666666666666  0.0000000000000000  0.3694567545157579   F   F   F
  0.0000000000000000  0.3333333333333333  0.3694567545157579   F   F   F
  0.3333333333333334  0.3333333333333333  0.3694567545157579   F   F   F
  0.6666666666666666  0.3333333333333333  0.3694567545157579   F   F   F
  0.0000000000000000  0.6666666666666666  0.3694567545157579   F   F   F
  0.3333333333333333  0.6666666666666666  0.3694567545157579   F   F   F
  0.6666666666666667  0.6666666666666666  0.3694567545157579   F   F   F
  0.1110407317733198  0.1112518697866943  0.4657859094869210   T   T   T
  0.4438749546727462  0.1121530020016328  0.4650147881804356   T   T   T
  0.7773053766589543  0.1121530020016328  0.4650147881804359   T   T   T
  0.1116899544445960  0.4438359069556142  0.4638135380956188   T   T   T
  0.4447991863760992  0.4437349605811348  0.4648472680775879   T   T   T
  0.7778074719331229  0.4438359069556142  0.4638135380956181   T   T   T
  0.1109177193367843  0.7782580341894743  0.4645150960393356   T   T   T
  0.4441575798070749  0.7782580341894738  0.4645150960393356   T   T   T
  0.7776663750503592  0.7780005832326147  0.4634439334189660   T   T   T
 -0.1108504597219143  0.2225097797749927  0.5596217857680549   T   T   T
  0.2216740132802544  0.2225097797749929  0.5596217857680547   T   T   T
  0.5554613303792437  0.2224106725748459  0.5589263694461114   T   T   T
 -0.1109199008016675  0.5551731349366674  0.5568477650733189   T   T   T
  0.2213338590300337  0.5560990467440414  0.5582308720777186   T   T   T
  0.5559004275592588  0.5560990467440403  0.5582308720777186   T   T   T
 -0.1112124296802786  0.8884269444386884  0.5585060031143494   T   T   T
  0.2223990120220919  0.8885353092891494  0.5589908494213780   T   T   T
  0.5561188185749226  0.8884269444386890  0.5585060031143494   T   T   T
 -0.0001173063685818 -0.0008569410597951  0.6538663391808107   T   T   T
  0.3343075807617102 -0.0008569410597950  0.6538663391808107   T   T   T
  0.6662934556120763  0.0007464221091806  0.6553483415612337   T   T   T
  0.0004136518152635  0.3325060297028050  0.6566422358331661   T   T   T
  0.3326761714392107  0.3339951935311253  0.6535988938601679   T   T   T
  0.6666619683629975  0.3339951935311247  0.6535988938601679   T   T   T
  0.0012614522697171  0.6663177890967412  0.6513452894825563   T   T   T
  0.3334805137446095  0.6663723058441143  0.6534082197956044   T   T   T
  0.6657540919668771  0.6663177890967398  0.6513452894825563   T   T   T
 -0.1666260447084154  0.6665854227501641  0.7506203219945771   T   T   T
