Au Hg
 1.0000000000000000
     8.6549870017233435    0.0000000000000000    0.0000000000000000
     4.3274935008616717    7.4954386129165247    0.0000000000000000
     0.0000000000000000    0.0000000000000000   27.0667672948810178
 Au  Hg 
  36   1
Selective dynamics
Direct
  0.0000000000000000  0.0000000000000000  0.3694567545157579   F   F   F
  0.3333333333333333  0.0000000000000000  0.3694567545157579   F   F   F
  0.6666666666666666  0.0000000000000000  0.3694567545157579   F   F   F
  0.0000000000000000  0.3333333333333333  0.3694567545157579   F   F   F
  0.3333333333333334  0.3333333333333333  0.3694567545157579   F   F   F
  0.6666666666666666  0.3333333333333333  0.3694567545157579   F   F   F
  0.0000000000000000  0.6666666666666666  0.3694567545157579   F   F   F
  0.3333333333333333  0.6666666666666666  0.3694567545157579   F   F   F
  0.6666666666666667  0.6666666666666666  0.3694567545157579   F   F   F
  0.1114658530427670  0.1104016272478004  0.4648472680775876   T   T   T
  0.4444741385997902  0.1105025736222799  0.4638135380956188   T   T   T
  0.7783566211112637  0.1105025736222802  0.4638135380956188   T   T   T
  0.1108242464737426  0.4449247008561402  0.4645150960393357   T   T   T
  0.4443330417170255  0.4446672498992822  0.4634439334189658   T   T   T
  0.7775843860034523  0.4449247008561396  0.4645150960393363   T   T   T
  0.1105416213394134  0.7788196686682990  0.4650147881804353   T   T   T
  0.4439720433256218  0.7788196686682989  0.4650147881804355   T   T   T
  0.7777073984399870  0.7779185364533593  0.4657859094869206   T   T   T
 -0.1119994743033004  0.2227657134107080  0.5582308720777187   T   T   T
  0.2225670942259266  0.2227657134107074  0.5582308720777184   T   T   T
  0.5557467658649994  0.2218398016033344  0.5568477650733190   T   T   T
 -0.1109343213112418  0.5552019759558159  0.5589908494213751   T   T   T
  0.2227854852415908  0.5550936111053558  0.5585060031143494   T   T   T
  0.5554542369863884  0.5550936111053552  0.5585060031143488   T   T   T
 -0.1116593200530800  0.8891764464416605  0.5596217857680549   T   T   T
  0.2221279970459106  0.8890773392415120  0.5589263694461107   T   T   T
  0.5558162069447533  0.8891764464416602  0.5596217857680559   T   T   T
 -0.0006571618941217  0.0006618601977912  0.6535988938601691   T   T   T
  0.3333286350296640  0.0006618601977917  0.6535988938601691   T   T   T
  0.6670803184819314 -0.0008273036305295  0.6566422358331724   T   T   T
  0.0001471804112766  0.3330389725107810  0.6534082197956016   T   T   T
  0.3324207586335427  0.3329844557634059  0.6513452894825572   T   T   T
  0.6679281189363854  0.3329844557634053  0.6513452894825572   T   T   T
  0.0009742474283765  0.6658097256068719  0.6538663391808085   T   T   T
  0.3329601222787436  0.6674130887758455  0.6553483415612346   T   T   T
  0.6665493602980862  0.6658097256068700  0.6538663391808085   T   T   T
  0.5000406219582504  0.3332520894168325  0.7506203219945765   T   T   T
