Au Hg
 1.0000000000000000
     8.6549870017233435    0.0000000000000000    0.0000000000000000
     4.3274935008616717    7.4954386129165247    0.0000000000000000
     0.0000000000000000    0.0000000000000000   27.0667672948810178
 Au  Hg 
  36   1
Selective dynamics
Direct
  0.0000000000000000  0.0000000000000000  0.3694567545157579   F   F   F
  0.3333333333333333  0.0000000000000000  0.3694567545157579   F   F   F
  0.6666666666666666  0.0000000000000000  0.3694567545157579   F   F   F
  0.0000000000000000  0.3333333333333333  0.3694567545157579   F   F   F
  0.3333333333333334  0.3333333333333333  0.3694567545157579   F   F   F
  0.6666666666666666  0.3333333333333333  0.3694567545157579   F   F   F
  0.0000000000000000  0.6666666666666666  0.3694567545157579   F   F   F
  0.3333333333333333  0.6666666666666666  0.3694567545157579   F   F   F
  0.6666666666666667  0.6666666666666666  0.3694567545157579   F   F   F
  0.1115913675228082  0.1108242464737413  0.4645150960393357   T   T   T
  0.4454863353349677  0.1105416213394114  0.4650147881804353   T   T   T
  0.7770682939144695  0.1114658530427655  0.4648472680775876   T   T   T
  0.1113339165659489  0.4443330417170249  0.4634439334189657   T   T   T
  0.4454863353349664  0.4439720433256200  0.4650147881804353   T   T   T
  0.7771692402889482  0.4444741385997891  0.4638135380956184   T   T   T
  0.1115913675228085  0.7775843860034503  0.4645150960393355   T   T   T
  0.4445852031200289  0.7777073984399848  0.4657859094869197   T   T   T
  0.7771692402889454  0.7783566211112625  0.4638135380956184   T   T   T
 -0.1105676199226249  0.2225670942259240  0.5582308720777186   T   T   T
  0.2217602777720221  0.2227854852415893  0.5585060031143486   T   T   T
  0.5557440059081810  0.2221279970459094  0.5589263694461087   T   T   T
 -0.1114935317299992  0.5557467658650000  0.5568477650733187   T   T   T
  0.2217602777720214  0.5554542369863887  0.5585060031143486   T   T   T
  0.5558431131083268  0.5558162069447524  0.5596217857680542   T   T   T
 -0.1105676199226245  0.8880005256966996  0.5582308720777185   T   T   T
  0.2218686426224833  0.8890656786887577  0.5589908494213753   T   T   T
  0.5558431131083273  0.8883406799469196  0.5596217857680544   T   T   T
 -0.0002943608225524  0.0001471804112767  0.6534082197956019   T   T   T
  0.3324763922735391  0.0009742474283765  0.6538663391808102   T   T   T
  0.6673285268644581 -0.0006571618941219  0.6535988938601680   T   T   T
 -0.0003488775699256  0.3324207586335434  0.6513452894825572   T   T   T
  0.3340797554425134  0.3329601222787444  0.6553483415612297   T   T   T
  0.6673285268644582  0.3333286350296641  0.6535988938601698   T   T   T
 -0.0003488775699260  0.6679281189363838  0.6513452894825572   T   T   T
  0.3324763922735391  0.6665493602980854  0.6538663391808102   T   T   T
  0.6658393630361383  0.6670803184819305  0.6566422358331672   T   T   T
 -0.0000812439165042  0.5000406219582513  0.7506203219945778   T   T   T
