Au Hg
 1.0000000000000000
     8.6549870017233435    0.0000000000000000    0.0000000000000000
     4.3274935008616717    7.4954386129165247    0.0000000000000000
     0.0000000000000000    0.0000000000000000   27.0667672948810178
 Au  Hg 
  36   1
Selective dynamics
Direct
  0.0000000000000000  0.0000000000000000  0.3694567545157579   F   F   F
  0.3333333333333333  0.0000000000000000  0.3694567545157579   F   F   F
  0.6666666666666666  0.0000000000000000  0.3694567545157579   F   F   F
  0.0000000000000000  0.3333333333333333  0.3694567545157579   F   F   F
  0.3333333333333334  0.3333333333333333  0.3694567545157579   F   F   F
  0.6666666666666666  0.3333333333333333  0.3694567545157579   F   F   F
  0.0000000000000000  0.6666666666666666  0.3694567545157579   F   F   F
  0.3333333333333333  0.6666666666666666  0.3694567545157579   F   F   F
  0.6666666666666667  0.6666666666666666  0.3694567545157579   F   F   F
  0.1121530020016317  0.1106387099922892  0.4650147881804355   T   T   T
  0.4438359069556123  0.1111408052664570  0.4638135380956194   T   T   T
  0.7780005832326136  0.1109997083836939  0.4634439334189653   T   T   T
  0.1112518697866940  0.4443740651066534  0.4657859094869196   T   T   T
  0.4438359069556133  0.4450232877779300  0.4638135380956187   T   T   T
  0.7782580341894721  0.4442510526701191  0.4645150960393361   T   T   T
  0.1121530020016317  0.7772082880060797  0.4650147881804350   T   T   T
  0.4437349605811354  0.7781325197094328  0.4648472680775875   T   T   T
  0.7782580341894719  0.7774909131404096  0.4645150960393361   T   T   T
 -0.1115730555613131  0.2221209036530564  0.5585060031143475   T   T   T
  0.2225097797749920  0.2224828736114207  0.5596217857680547   T   T   T
  0.5551731349366663  0.2224134325316671  0.5568477650733198   T   T   T
 -0.1114646907108523  0.5557323453554260  0.5589908494213754   T   T   T
  0.2225097797749931  0.5550073466135869  0.5596217857680535   T   T   T
  0.5560990467440418  0.5546671923633665  0.5582308720777194   T   T   T
 -0.1115730555613131  0.8894521519082572  0.5585060031143477   T   T   T
  0.2224106725748460  0.8887946637125776  0.5589263694461074   T   T   T
  0.5560990467440405  0.8892337608925920  0.5582308720777194   T   T   T
  0.0007464221091790 -0.0003732110545888  0.6553483415612281   T   T   T
  0.3339951935311243 -0.0000046983036691  0.6535988938601647   T   T   T
  0.6663177890967381 -0.0009125746997904  0.6513452894825590   T   T   T
 -0.0008569410597949  0.3332160269647524  0.6538663391808077   T   T   T
  0.3325060297028040  0.3337469851485994  0.6566422358331715   T   T   T
  0.6663177890967404  0.3345947856030516  0.6513452894825590   T   T   T
 -0.0008569410597954  0.6676409140950439  0.6538663391808077   T   T   T
  0.3339951935311235  0.6660095047725467  0.6535988938601645   T   T   T
  0.6663723058441132  0.6668138470779434  0.6534082197956065   T   T   T
  0.6665854227501670  0.1667072886249171  0.7506203219945798   T   T   T
