Au Hg
 1.0000000000000000
     8.6549870017233435    0.0000000000000000    0.0000000000000000
     4.3274935008616717    7.4954386129165247    0.0000000000000000
     0.0000000000000000    0.0000000000000000   27.0667672948810178
 Au  Hg 
  36   1
Selective dynamics
Direct
  0.0000000000000000  0.0000000000000000  0.3694567545157579   F   F   F
  0.3333333333333333  0.0000000000000000  0.3694567545157579   F   F   F
  0.6666666666666666  0.0000000000000000  0.3694567545157579   F   F   F
  0.0000000000000000  0.3333333333333333  0.3694567545157579   F   F   F
  0.3333333333333334  0.3333333333333333  0.3694567545157579   F   F   F
  0.6666666666666666  0.3333333333333333  0.3694567545157579   F   F   F
  0.0000000000000000  0.6666666666666666  0.3694567545157579   F   F   F
  0.3333333333333333  0.6666666666666666  0.3694567545157579   F   F   F
  0.6666666666666667  0.6666666666666666  0.3694567545157579   F   F   F
  0.1111408052664558  0.1105025736222803  0.4638135380956184   T   T   T
  0.4450232877779289  0.1105025736222802  0.4638135380956184   T   T   T
  0.7781325197094334  0.1104016272477997  0.4648472680775884   T   T   T
  0.1109997083836913  0.4446672498992821  0.4634439334189656   T   T   T
  0.4442510526701174  0.4449247008561396  0.4645150960393357   T   T   T
  0.7774909131404086  0.4449247008561396  0.4645150960393357   T   T   T
  0.1106387099922876  0.7788196686682989  0.4650147881804359   T   T   T
  0.4443740651066507  0.7779185364533620  0.4657859094869202   T   T   T
  0.7772082880060771  0.7788196686682984  0.4650147881804363   T   T   T
 -0.1107662391074060  0.2227657134107057  0.5582308720777176   T   T   T
  0.2224134325316662  0.2218398016033342  0.5568477650733186   T   T   T
  0.5546671923633675  0.2227657134107057  0.5582308720777176   T   T   T
 -0.1105478480917430  0.5550936111053544  0.5585060031143501   T   T   T
  0.2221209036530555  0.5550936111053537  0.5585060031143501   T   T   T
  0.5557323453554250  0.5552019759558166  0.5589908494213738   T   T   T
 -0.1112053362874220  0.8890773392415111  0.5589263694461128   T   T   T
  0.2224828736114199  0.8891764464416598  0.5596217857680555   T   T   T
  0.5550073466135873  0.8891764464416613  0.5596217857680555   T   T   T
 -0.0000046983036682  0.0006618601977898  0.6535988938601706   T   T   T
  0.3337469851485981 -0.0008273036305297  0.6566422358331702   T   T   T
  0.6660095047725444  0.0006618601977901  0.6535988938601706   T   T   T
 -0.0009125746997902  0.3329844557634046  0.6513452894825570   T   T   T
  0.3345947856030526  0.3329844557634046  0.6513452894825570   T   T   T
  0.6668138470779439  0.3330389725107787  0.6534082197955950   T   T   T
 -0.0003732110545884  0.6674130887758434  0.6553483415612369   T   T   T
  0.3332160269647531  0.6658097256068707  0.6538663391808098   T   T   T
  0.6676409140950430  0.6658097256068707  0.6538663391808098   T   T   T
  0.1667072886249170  0.3332520894168325  0.7506203219945770   T   T   T
