Au Hg
 1.0000000000000000
     8.6549870017233435    0.0000000000000000    0.0000000000000000
     4.3274935008616717    7.4954386129165247    0.0000000000000000
     0.0000000000000000    0.0000000000000000   27.0667672948810178
 Au  Hg 
  36   1
Selective dynamics
Direct
  0.0000000000000000  0.0000000000000000  0.3694567545157579   F   F   F
  0.3333333333333333  0.0000000000000000  0.3694567545157579   F   F   F
  0.6666666666666666  0.0000000000000000  0.3694567545157579   F   F   F
  0.0000000000000000  0.3333333333333333  0.3694567545157579   F   F   F
  0.3333333333333334  0.3333333333333333  0.3694567545157579   F   F   F
  0.6666666666666666  0.3333333333333333  0.3694567545157579   F   F   F
  0.0000000000000000  0.6666666666666666  0.3694567545157579   F   F   F
  0.3333333333333333  0.6666666666666666  0.3694567545157579   F   F   F
  0.6666666666666667  0.6666666666666666  0.3694567545157579   F   F   F
  0.1109997083836924  0.1109997083836922  0.4634439334189651   T   T   T
  0.4450232877779294  0.1111408052664568  0.4638135380956185   T   T   T
  0.7772082880060792  0.1106387099922878  0.4650147881804347   T   T   T
  0.1111408052664571  0.4450232877779289  0.4638135380956179   T   T   T
  0.4443740651066541  0.4443740651066524  0.4657859094869196   T   T   T
  0.7774909131404062  0.4442510526701171  0.4645150960393352   T   T   T
  0.1106387099922889  0.7772082880060794  0.4650147881804348   T   T   T
  0.4442510526701187  0.7774909131404074  0.4645150960393352   T   T   T
  0.7781325197094321  0.7781325197094335  0.4648472680775880   T   T   T
 -0.1105478480917427  0.2221209036530557  0.5585060031143497   T   T   T
  0.2224134325316658  0.2224134325316663  0.5568477650733190   T   T   T
  0.5550073466135869  0.2224828736114197  0.5596217857680534   T   T   T
 -0.1107662391074080  0.5546671923633665  0.5582308720777183   T   T   T
  0.2224828736114198  0.5550073466135865  0.5596217857680534   T   T   T
  0.5557323453554261  0.5557323453554258  0.5589908494213747   T   T   T
 -0.1112053362874231  0.8887946637125778  0.5589263694461091   T   T   T
  0.2221209036530551  0.8894521519082565  0.5585060031143484   T   T   T
  0.5546671923633673  0.8892337608925923  0.5582308720777174   T   T   T
 -0.0003732110545909 -0.0003732110545900  0.6553483415612338   T   T   T
  0.3345947856030524 -0.0009125746997928  0.6513452894825582   T   T   T
  0.6660095047725442 -0.0000046983036691  0.6535988938601653   T   T   T
 -0.0009125746997937  0.3345947856030543  0.6513452894825582   T   T   T
  0.3337469851485968  0.3337469851485984  0.6566422358331669   T   T   T
  0.6676409140950424  0.3332160269647524  0.6538663391808072   T   T   T
 -0.0000046983036700  0.6660095047725443  0.6535988938601653   T   T   T
  0.3332160269647520  0.6676409140950422  0.6538663391808071   T   T   T
  0.6668138470779417  0.6668138470779433  0.6534082197956035   T   T   T
  0.1667072886249191  0.1667072886249171  0.7506203219945776   T   T   T
