Au Hg
 1.0000000000000000
     8.6549870017233435    0.0000000000000000    0.0000000000000000
     4.3274935008616717    7.4954386129165247    0.0000000000000000
     0.0000000000000000    0.0000000000000000   27.0667672948810178
 Au  Hg 
  36   1
Selective dynamics
Direct
  0.0000000000000000  0.0000000000000000  0.3694567545157579   F   F   F
  0.3333333333333333  0.0000000000000000  0.3694567545157579   F   F   F
  0.6666666666666666  0.0000000000000000  0.3694567545157579   F   F   F
  0.0000000000000000  0.3333333333333333  0.3694567545157579   F   F   F
  0.3333333333333334  0.3333333333333333  0.3694567545157579   F   F   F
  0.6666666666666666  0.3333333333333333  0.3694567545157579   F   F   F
  0.0000000000000000  0.6666666666666666  0.3694567545157579   F   F   F
  0.3333333333333333  0.6666666666666666  0.3694567545157579   F   F   F
  0.6666666666666667  0.6666666666666666  0.3694567545157579   F   F   F
  0.1108242464737428  0.1115913675228064  0.4645150960393347   T   T   T
  0.4443330417170259  0.1113339165659481  0.4634439334189655   T   T   T
  0.7775843860034524  0.1115913675228065  0.4645150960393351   T   T   T
  0.1105416213394133  0.4454863353349654  0.4650147881804351   T   T   T
  0.4439720433256215  0.4454863353349658  0.4650147881804351   T   T   T
  0.7777073984399862  0.4445852031200276  0.4657859094869194   T   T   T
  0.1114658530427655  0.7770682939144690  0.4648472680775879   T   T   T
  0.4444741385997893  0.7771692402889470  0.4638135380956184   T   T   T
  0.7783566211112630  0.7771692402889470  0.4638135380956184   T   T   T
 -0.1109343213112422  0.2218686426224831  0.5589908494213733   T   T   T
  0.2227854852415903  0.2217602777720202  0.5585060031143477   T   T   T
  0.5554542369863895  0.2217602777720204  0.5585060031143477   T   T   T
 -0.1116593200530800  0.5558431131083272  0.5596217857680545   T   T   T
  0.2221279970459098  0.5557440059081804  0.5589263694461094   T   T   T
  0.5558162069447533  0.5558431131083259  0.5596217857680545   T   T   T
 -0.1119994743033007  0.8894323800773738  0.5582308720777182   T   T   T
  0.2225670942259263  0.8894323800773736  0.5582308720777182   T   T   T
  0.5557467658649994  0.8885064682700012  0.5568477650733198   T   T   T
  0.0001471804112769 -0.0002943608225541  0.6534082197955965   T   T   T
  0.3324207586335421 -0.0003488775699283  0.6513452894825582   T   T   T
  0.6679281189363847 -0.0003488775699278  0.6513452894825582   T   T   T
  0.0009742474283771  0.3324763922735361  0.6538663391808071   T   T   T
  0.3329601222787438  0.3340797554425124  0.6553483415612297   T   T   T
  0.6665493602980861  0.3324763922735367  0.6538663391808071   T   T   T
 -0.0006571618941230  0.6673285268644583  0.6535988938601676   T   T   T
  0.3333286350296637  0.6673285268644579  0.6535988938601676   T   T   T
  0.6670803184819323  0.6658393630361356  0.6566422358331705   T   T   T
  0.5000406219582508 -0.0000812439165015  0.7506203219945794   T   T   T
