Au Hg
 1.0000000000000000
     8.6549870017233435    0.0000000000000000    0.0000000000000000
     4.3274935008616717    7.4954386129165247    0.0000000000000000
     0.0000000000000000    0.0000000000000000   27.0667672948810178
 Au  Hg 
  36   1
Selective dynamics
Direct
  0.0000000000000000  0.0000000000000000  0.3694567545157579   F   F   F
  0.3333333333333333  0.0000000000000000  0.3694567545157579   F   F   F
  0.6666666666666666  0.0000000000000000  0.3694567545157579   F   F   F
  0.0000000000000000  0.3333333333333333  0.3694567545157579   F   F   F
  0.3333333333333334  0.3333333333333333  0.3694567545157579   F   F   F
  0.6666666666666666  0.3333333333333333  0.3694567545157579   F   F   F
  0.0000000000000000  0.6666666666666666  0.3694567545157579   F   F   F
  0.3333333333333333  0.6666666666666666  0.3694567545157579   F   F   F
  0.6666666666666667  0.6666666666666666  0.3694567545157579   F   F   F
  0.1105025736222814  0.1116899544445963  0.4638135380956187   T   T   T
  0.4449247008561421  0.1109177193367838  0.4645150960393348   T   T   T
  0.7779185364533612  0.1110407317733200  0.4657859094869209   T   T   T
  0.1104016272478012  0.4447991863760999  0.4648472680775884   T   T   T
  0.4449247008561404  0.4441575798070751  0.4645150960393364   T   T   T
  0.7788196686682990  0.4438749546727461  0.4650147881804351   T   T   T
  0.1105025736222807  0.7778074719331247  0.4638135380956190   T   T   T
  0.4446672498992835  0.7776663750503592  0.4634439334189656   T   T   T
  0.7788196686682984  0.7773053766589535  0.4650147881804362   T   T   T
 -0.1108235535583393  0.2216740132802535  0.5596217857680554   T   T   T
  0.2227657134107087  0.2213338590300332  0.5582308720777192   T   T   T
  0.5552019759558163  0.2223990120220921  0.5589908494213769   T   T   T
 -0.1109226607584871  0.5554613303792437  0.5589263694461105   T   T   T
  0.2227657134107094  0.5559004275592573  0.5582308720777193   T   T   T
  0.5550936111053553  0.5561188185749231  0.5585060031143479   T   T   T
 -0.1108235535583394  0.8891495402780870  0.5596217857680560   T   T   T
  0.2218398016033339  0.8890800991983341  0.5568477650733183   T   T   T
  0.5550936111053548  0.8887875703197223  0.5585060031143487   T   T   T
 -0.0008273036305287  0.0004136518152627  0.6566422358331711   T   T   T
  0.3329844557634062  0.0012614522697156  0.6513452894825555   T   T   T
  0.6658097256068721 -0.0001173063685834  0.6538663391808094   T   T   T
  0.0006618601977914  0.3326761714392095  0.6535988938601685   T   T   T
  0.3330389725107791  0.3334805137446092  0.6534082197956045   T   T   T
  0.6658097256068706  0.3343075807617080  0.6538663391808094   T   T   T
  0.0006618601977912  0.6666619683629947  0.6535988938601679   T   T   T
  0.3329844557634059  0.6657540919668745  0.6513452894825555   T   T   T
  0.6674130887758459  0.6662934556120751  0.6553483415612337   T   T   T
  0.3332520894168295 -0.1666260447084162  0.7506203219945763   T   T   T
