Au Hg
 1.0000000000000000
     8.6549870017233435    0.0000000000000000    0.0000000000000000
     4.3274935008616717    7.4954386129165247    0.0000000000000000
     0.0000000000000000    0.0000000000000000   27.0667672948810178
 Au  Hg 
  36   1
Selective dynamics
Direct
  0.0000000000000000  0.0000000000000000  0.3694567545157579   F   F   F
  0.3333333333333333  0.0000000000000000  0.3694567545157579   F   F   F
  0.6666666666666666  0.0000000000000000  0.3694567545157579   F   F   F
  0.0000000000000000  0.3333333333333333  0.3694567545157579   F   F   F
  0.3333333333333334  0.3333333333333333  0.3694567545157579   F   F   F
  0.6666666666666666  0.3333333333333333  0.3694567545157579   F   F   F
  0.0000000000000000  0.6666666666666666  0.3694567545157579   F   F   F
  0.3333333333333333  0.6666666666666666  0.3694567545157579   F   F   F
  0.6666666666666667  0.6666666666666666  0.3694567545157579   F   F   F
  0.1105537654279514  0.1111865175692128  0.4647759386789180   T   T   T
  0.4444444444444453  0.1111111111111093  0.4637649791130911   T   T   T
  0.7782597170028366  0.1111865175692143  0.4647759386789180   T   T   T
  0.1105537654279509  0.4449263836695000  0.4647759386789181   T   T   T
  0.4445198509025496  0.4449263836694999  0.4647759386789181   T   T   T
  0.7777777777777782  0.4444444444444435  0.4658586582007773   T   T   T
  0.1111111111111122  0.7777777777777757  0.4656955038933149   T   T   T
  0.4445198509025487  0.7772204320946149  0.4647759386789180   T   T   T
  0.7782597170028379  0.7772204320946164  0.4647759386789180   T   T   T
 -0.1111521997144158  0.2223043994288315  0.5592091082200877   T   T   T
  0.2224216218880567  0.2221225223893045  0.5586059711430846   T   T   T
  0.5554558557226393  0.2221225223893041  0.5586059711430846   T   T   T
 -0.1111521997144152  0.5555144669522499  0.5592091082200877   T   T   T
  0.2226833072870070  0.5546333854259861  0.5587513496819541   T   T   T
  0.5556377327621655  0.5555144669522495  0.5592091082200877   T   T   T
 -0.1120332812406788  0.8893499739536730  0.5587513496819541   T   T   T
  0.2226833072870072  0.8893499739536729  0.5587513496819541   T   T   T
  0.5554558557226396  0.8890882885547209  0.5586059711430846   T   T   T
  0.0000192241173442 -0.0000384482346877  0.6537091758195607   T   T   T
  0.3330989973377702 -0.0002343359955630  0.6544929545961408   T   T   T
  0.6671353386577926 -0.0002343359955630  0.6544929545961408   T   T   T
  0.0006086972241802  0.3330289847212436  0.6547558090115065   T   T   T
  0.3330989973377696  0.3338020053244607  0.6544929545961415   T   T   T
  0.6663623180545761  0.3330289847212431  0.6547558090115065   T   T   T
  0.0000192241173435  0.6666858907840112  0.6537091758195589   T   T   T
  0.3332948850986458  0.6666858907840095  0.6537091758195589   T   T   T
  0.6663623180545765  0.6672753638908469  0.6547558090115065   T   T   T
  0.4444444444444446  0.1111111111111107  0.7500221279268072   T   T   T
