Au Hg
 1.0000000000000000
     8.6549870017233435    0.0000000000000000    0.0000000000000000
     4.3274935008616717    7.4954386129165247    0.0000000000000000
     0.0000000000000000    0.0000000000000000   27.0667672948810178
 Au  Hg 
  36   1
Selective dynamics
Direct
  0.0000000000000000  0.0000000000000000  0.3694567545157579   F   F   F
  0.3333333333333333  0.0000000000000000  0.3694567545157579   F   F   F
  0.6666666666666666  0.0000000000000000  0.3694567545157579   F   F   F
  0.0000000000000000  0.3333333333333333  0.3694567545157579   F   F   F
  0.3333333333333334  0.3333333333333333  0.3694567545157579   F   F   F
  0.6666666666666666  0.3333333333333333  0.3694567545157579   F   F   F
  0.0000000000000000  0.6666666666666666  0.3694567545157579   F   F   F
  0.3333333333333333  0.6666666666666666  0.3694567545157579   F   F   F
  0.6666666666666667  0.6666666666666666  0.3694567545157579   F   F   F
  0.1111107346153551  0.1111107346153558  0.4652972465161168   T   T   T
  0.4444451974359571  0.1111107346153554  0.4652972465161172   T   T   T
  0.7776947254118598  0.1112772158429470  0.4639150139039910   T   T   T
  0.1111107346153553  0.4444451974359563  0.4652972465161173   T   T   T
  0.4447303732283845  0.4447303732283864  0.4653851897142458   T   T   T
  0.7772059202098965  0.4447303732283863  0.4653851897142458   T   T   T
  0.1112772158429481  0.7776947254118598  0.4639150139039910   T   T   T
  0.4447303732283850  0.7772059202098964  0.4653851897142458   T   T   T
  0.7776947254118600  0.7776947254118589  0.4639150139039910   T   T   T
 -0.1107688283173500  0.2217546830414025  0.5590265894428074   T   T   T
  0.2222222222222227  0.2222222222222213  0.5583641040162740   T   T   T
  0.5556808119426139  0.2217546830414027  0.5590265894428074   T   T   T
 -0.1107688283173493  0.5556808119426132  0.5590265894428075   T   T   T
  0.2217546830414036  0.5556808119426132  0.5590265894428074   T   T   T
  0.5555555555555556  0.5555555555555555  0.5586222832510940   T   T   T
 -0.1111111111111111  0.8888888888888888  0.5574406064159148   T   T   T
  0.2217546830414031  0.8892311716826508  0.5590265894428074   T   T   T
  0.5556808119426131  0.8892311716826489  0.5590265894428074   T   T   T
 -0.0001180731268195 -0.0001180731268200  0.6548194046110067   T   T   T
  0.3332785817897447  0.0001095030871773  0.6538670160713821   T   T   T
  0.6669028129203052 -0.0001180731268196  0.6548194046110072   T   T   T
  0.0001095030871779  0.3332785817897438  0.6538670160713821   T   T   T
  0.3332785817897448  0.3332785817897443  0.6538670160713821   T   T   T
  0.6668694632255157  0.3329277402156351  0.6541794449453536   T   T   T
 -0.0001180731268200  0.6669028129203065  0.6548194046110064   T   T   T
  0.3329277402156359  0.6668694632255144  0.6541794449453536   T   T   T
  0.6668694632255143  0.6668694632255159  0.6541794449453536   T   T   T
 -0.1111111111111111 -0.1111111111111111  0.7507082806706062   T   T   T
