Au Hg
 1.0000000000000000
     8.6549870017233435    0.0000000000000000    0.0000000000000000
     4.3274935008616717    7.4954386129165247    0.0000000000000000
     0.0000000000000000    0.0000000000000000   27.0667672948810178
 Au  Hg 
  36   1
Selective dynamics
Direct
  0.0000000000000000  0.0000000000000000  0.3694567545157579   F   F   F
  0.3333333333333333  0.0000000000000000  0.3694567545157579   F   F   F
  0.6666666666666666  0.0000000000000000  0.3694567545157579   F   F   F
  0.0000000000000000  0.3333333333333333  0.3694567545157579   F   F   F
  0.3333333333333334  0.3333333333333333  0.3694567545157579   F   F   F
  0.6666666666666666  0.3333333333333333  0.3694567545157579   F   F   F
  0.0000000000000000  0.6666666666666666  0.3694567545157579   F   F   F
  0.3333333333333333  0.6666666666666666  0.3694567545157579   F   F   F
  0.6666666666666667  0.6666666666666666  0.3694567545157579   F   F   F
  0.1115930503361678  0.1105537654279509  0.4647759386789181   T   T   T
  0.4444444444444445  0.1111111111111110  0.4656955038933155   T   T   T
  0.7778531842358798  0.1105537654279508  0.4647759386789181   T   T   T
  0.1115930503361680  0.4445198509025475  0.4647759386789181   T   T   T
  0.4438870987612837  0.4445198509025479  0.4647759386789181   T   T   T
  0.7777777777777778  0.4444444444444444  0.4637649791130906   T   T   T
  0.1111111111111111  0.7777777777777778  0.4658586582007774   T   T   T
  0.4438870987612827  0.7782597170028357  0.4647759386789181   T   T   T
  0.7778531842358786  0.7782597170028357  0.4647759386789181   T   T   T
 -0.1112108109440283  0.2224216218880569  0.5586059711430846   T   T   T
  0.2213000520926532  0.2226833072870074  0.5587513496819553   T   T   T
  0.5560166406203394  0.2226833072870071  0.5587513496819552   T   T   T
 -0.1112108109440288  0.5554558557226401  0.5586059711430846   T   T   T
  0.2221811336189170  0.5556377327621660  0.5592091082200880   T   T   T
  0.5557549552213888  0.5554558557226394  0.5586059711430846   T   T   T
 -0.1110289339045012  0.8888478002855834  0.5592091082200874   T   T   T
  0.2221811336189167  0.8888478002855854  0.5592091082200872   T   T   T
  0.5560166406203397  0.8879667187593204  0.5587513496819553   T   T   T
 -0.0003043486120896  0.0006086972241798  0.6547558090115039   T   T   T
  0.3333525574506772  0.0000192241173429  0.6537091758195609   T   T   T
  0.6666282184319805  0.0000192241173426  0.6537091758195609   T   T   T
  0.0004686719911263  0.3330989973377695  0.6544929545961410   T   T   T
  0.3333525574506775  0.3332948850986450  0.6537091758195609   T   T   T
  0.6664323306711050  0.3330989973377688  0.6544929545961410   T   T   T
 -0.0003043486120904  0.6663623180545761  0.6547558090115039   T   T   T
  0.3339420305575144  0.6663623180545761  0.6547558090115039   T   T   T
  0.6664323306711044  0.6671353386577912  0.6544929545961428   T   T   T
 -0.2222222222222222  0.4444444444444444  0.7500221279268090   T   T   T
