Au Hg
 1.0000000000000000
     8.6549870017233435    0.0000000000000000    0.0000000000000000
     4.3274935008616717    7.4954386129165247    0.0000000000000000
     0.0000000000000000    0.0000000000000000   27.0667672948810178
 Au  Hg 
  36   1
Selective dynamics
Direct
  0.0000000000000000  0.0000000000000000  0.3694567545157579   F   F   F
  0.3333333333333333  0.0000000000000000  0.3694567545157579   F   F   F
  0.6666666666666666  0.0000000000000000  0.3694567545157579   F   F   F
  0.0000000000000000  0.3333333333333333  0.3694567545157579   F   F   F
  0.3333333333333334  0.3333333333333333  0.3694567545157579   F   F   F
  0.6666666666666666  0.3333333333333333  0.3694567545157579   F   F   F
  0.0000000000000000  0.6666666666666666  0.3694567545157579   F   F   F
  0.3333333333333333  0.6666666666666666  0.3694567545157579   F   F   F
  0.6666666666666667  0.6666666666666666  0.3694567545157579   F   F   F
  0.1111107346153548  0.1111118641026227  0.4652972465161167   T   T   T
  0.4447303732283858  0.1113970398950526  0.4653851897142456   T   T   T
  0.7772059202098940  0.1113970398950527  0.4653851897142453   T   T   T
  0.1112772158429471  0.4443613920785269  0.4639150139039909   T   T   T
  0.4447303732283859  0.4438725868765614  0.4653851897142456   T   T   T
  0.7776947254118608  0.4443613920785269  0.4639150139039909   T   T   T
  0.1111107346153554  0.7777774012820211  0.4652972465161170   T   T   T
  0.4444451974359571  0.7777774012820208  0.4652972465161170   T   T   T
  0.7776947254118596  0.7779438825096139  0.4639150139039904   T   T   T
 -0.1107688283173507  0.2223474786092800  0.5590265894428070   T   T   T
  0.2217546830414033  0.2223474786092801  0.5590265894428077   T   T   T
  0.5555555555555557  0.2222222222222218  0.5586222832510954   T   T   T
 -0.1111111111111105  0.5555555555555555  0.5574406064159154   T   T   T
  0.2217546830414048  0.5558978383493158  0.5590265894428077   T   T   T
  0.5556808119426135  0.5558978383493149  0.5590265894428077   T   T   T
 -0.1107688283173507  0.8884213497080701  0.5590265894428070   T   T   T
  0.2222222222222222  0.8888888888888888  0.5583641040162742   T   T   T
  0.5556808119426135  0.8884213497080699  0.5590265894428070   T   T   T
  0.0001095030871774 -0.0000547515435893  0.6538670160713831   T   T   T
  0.3332785817897450 -0.0000547515435896  0.6538670160713831   T   T   T
  0.6668694632255157 -0.0004055931176982  0.6541794449453542   T   T   T
 -0.0001180731268194  0.3335694795869713  0.6548194046110057   T   T   T
  0.3329277402156344  0.3335361298921816  0.6541794449453562   T   T   T
  0.6668694632255153  0.3335361298921817  0.6541794449453562   T   T   T
 -0.0001180731268197  0.6665485935398471  0.6548194046110057   T   T   T
  0.3332785817897443  0.6667761697538425  0.6538670160713834   T   T   T
  0.6669028129203053  0.6665485935398459  0.6548194046110057   T   T   T
 -0.1111111111111111  0.5555555555555555  0.7507082806706037   T   T   T
