Au Hg
 1.0000000000000000
     8.6549870017233435    0.0000000000000000    0.0000000000000000
     4.3274935008616717    7.4954386129165247    0.0000000000000000
     0.0000000000000000    0.0000000000000000   27.0667672948810178
 Au  Hg 
  36   1
Selective dynamics
Direct
  0.0000000000000000  0.0000000000000000  0.3694567545157579   F   F   F
  0.3333333333333333  0.0000000000000000  0.3694567545157579   F   F   F
  0.6666666666666666  0.0000000000000000  0.3694567545157579   F   F   F
  0.0000000000000000  0.3333333333333333  0.3694567545157579   F   F   F
  0.3333333333333334  0.3333333333333333  0.3694567545157579   F   F   F
  0.6666666666666666  0.3333333333333333  0.3694567545157579   F   F   F
  0.0000000000000000  0.6666666666666666  0.3694567545157579   F   F   F
  0.3333333333333333  0.6666666666666666  0.3694567545157579   F   F   F
  0.6666666666666667  0.6666666666666666  0.3694567545157579   F   F   F
  0.1111865175692146  0.1115930503361677  0.4647759386789181   T   T   T
  0.4444444444444434  0.1111111111111110  0.4658586582007764   T   T   T
  0.7772204320946172  0.1115930503361679  0.4647759386789178   T   T   T
  0.1111865175692138  0.4438870987612839  0.4647759386789178   T   T   T
  0.4449263836695022  0.4438870987612837  0.4647759386789178   T   T   T
  0.7777777777777780  0.4444444444444440  0.4656955038933157   T   T   T
  0.1111111111111111  0.7777777777777778  0.4637649791130910   T   T   T
  0.4449263836695024  0.7778531842358806  0.4647759386789179   T   T   T
  0.7772204320946183  0.7778531842358807  0.4647759386789179   T   T   T
 -0.1106500260463259  0.2213000520926531  0.5587513496819543   T   T   T
  0.2223043994288325  0.2221811336189166  0.5592091082200865   T   T   T
  0.5555144669522513  0.2221811336189176  0.5592091082200861   T   T   T
 -0.1106500260463254  0.5560166406203385  0.5587513496819552   T   T   T
  0.2221225223893046  0.5557549552213907  0.5586059711430847   T   T   T
  0.5546333854259872  0.5560166406203408  0.5587513496819559   T   T   T
 -0.1109117114452756  0.8887891890559707  0.5586059711430847   T   T   T
  0.2221225223893051  0.8887891890559717  0.5586059711430850   T   T   T
  0.5555144669522510  0.8889710660954979  0.5592091082200870   T   T   T
 -0.0002343359955630  0.0004686719911256  0.6544929545961428   T   T   T
  0.3330289847212434 -0.0003043486120902  0.6547558090115054   T   T   T
  0.6672753638908487 -0.0003043486120907  0.6547558090115011   T   T   T
 -0.0000384482346870  0.3333525574506763  0.6537091758195602   T   T   T
  0.3330289847212433  0.3339420305575134  0.6547558090114997   T   T   T
  0.6666858907840112  0.3333525574506770  0.6537091758195602   T   T   T
 -0.0002343359955626  0.6664323306711023  0.6544929545961430   T   T   T
  0.3338020053244587  0.6664323306711041  0.6544929545961430   T   T   T
  0.6666858907840105  0.6666282184319789  0.6537091758195602   T   T   T
  0.1111111111111115 -0.2222222222222222  0.7500221279268107   T   T   T
