Au Hg
 1.0000000000000000
     8.6549870017233435    0.0000000000000000    0.0000000000000000
     4.3274935008616717    7.4954386129165247    0.0000000000000000
     0.0000000000000000    0.0000000000000000   27.0667672948810178
 Au  Hg 
  36   1
Selective dynamics
Direct
  0.0000000000000000  0.0000000000000000  0.3694567545157579   F   F   F
  0.3333333333333333  0.0000000000000000  0.3694567545157579   F   F   F
  0.6666666666666666  0.0000000000000000  0.3694567545157579   F   F   F
  0.0000000000000000  0.3333333333333333  0.3694567545157579   F   F   F
  0.3333333333333334  0.3333333333333333  0.3694567545157579   F   F   F
  0.6666666666666666  0.3333333333333333  0.3694567545157579   F   F   F
  0.0000000000000000  0.6666666666666666  0.3694567545157579   F   F   F
  0.3333333333333333  0.6666666666666666  0.3694567545157579   F   F   F
  0.6666666666666667  0.6666666666666666  0.3694567545157579   F   F   F
  0.1115930503361689  0.1111865175692139  0.4647759386789181   T   T   T
  0.4438870987612842  0.1111865175692141  0.4647759386789181   T   T   T
  0.7777777777777780  0.1111111111111108  0.4637649791130909   T   T   T
  0.1111111111111124  0.4444444444444428  0.4658586582007758   T   T   T
  0.4438870987612834  0.4449263836695007  0.4647759386789181   T   T   T
  0.7778531842358830  0.4449263836695003  0.4647759386789181   T   T   T
  0.1115930503361695  0.7772204320946160  0.4647759386789181   T   T   T
  0.4444444444444443  0.7777777777777780  0.4656955038933143   T   T   T
  0.7778531842358811  0.7772204320946157  0.4647759386789181   T   T   T
 -0.1112108109440283  0.2221225223893043  0.5586059711430852   T   T   T
  0.2221811336189167  0.2223043994288318  0.5592091082200861   T   T   T
  0.5557549552213883  0.2221225223893058  0.5586059711430852   T   T   T
 -0.1110289339045014  0.5555144669522509  0.5592091082200861   T   T   T
  0.2221811336189173  0.5555144669522507  0.5592091082200861   T   T   T
  0.5560166406203404  0.5546333854259858  0.5587513496819531   T   T   T
 -0.1112108109440284  0.8890882885547234  0.5586059711430852   T   T   T
  0.2213000520926525  0.8893499739536728  0.5587513496819531   T   T   T
  0.5560166406203398  0.8893499739536741  0.5587513496819523   T   T   T
  0.0004686719911264 -0.0002343359955628  0.6544929545961453   T   T   T
  0.3333525574506765 -0.0000384482346866  0.6537091758195558   T   T   T
  0.6664323306711036 -0.0002343359955629  0.6544929545961453   T   T   T
 -0.0003043486120907  0.3330289847212442  0.6547558090115032   T   T   T
  0.3339420305575135  0.3330289847212438  0.6547558090115032   T   T   T
  0.6664323306711030  0.3338020053244606  0.6544929545961466   T   T   T
 -0.0003043486120908  0.6672753638908473  0.6547558090115032   T   T   T
  0.3333525574506765  0.6666858907840112  0.6537091758195558   T   T   T
  0.6666282184319794  0.6666858907840105  0.6537091758195558   T   T   T
 -0.2222222222222222  0.1111111111111109  0.7500221279268131   T   T   T
