Au Hg
 1.0000000000000000
     8.6549870017233435    0.0000000000000000    0.0000000000000000
     4.3274935008616717    7.4954386129165247    0.0000000000000000
     0.0000000000000000    0.0000000000000000   27.0667672948810178
 Au  Hg 
  36   1
Selective dynamics
Direct
  0.0000000000000000  0.0000000000000000  0.3694567545157579   F   F   F
  0.3333333333333333  0.0000000000000000  0.3694567545157579   F   F   F
  0.6666666666666666  0.0000000000000000  0.3694567545157579   F   F   F
  0.0000000000000000  0.3333333333333333  0.3694567545157579   F   F   F
  0.3333333333333334  0.3333333333333333  0.3694567545157579   F   F   F
  0.6666666666666666  0.3333333333333333  0.3694567545157579   F   F   F
  0.0000000000000000  0.6666666666666666  0.3694567545157579   F   F   F
  0.3333333333333333  0.6666666666666666  0.3694567545157579   F   F   F
  0.6666666666666667  0.6666666666666666  0.3694567545157579   F   F   F
  0.1113970398950525  0.1105392535432284  0.4653851897142461   T   T   T
  0.4443613920785267  0.1110280587451927  0.4639150139039905   T   T   T
  0.7779438825096142  0.1110280587451921  0.4639150139039905   T   T   T
  0.1111118641026228  0.4444440679486883  0.4652972465161165   T   T   T
  0.4443613920785269  0.4446105491762795  0.4639150139039905   T   T   T
  0.7777774012820220  0.4444440679486882  0.4652972465161165   T   T   T
  0.1113970398950530  0.7780637065617187  0.4653851897142461   T   T   T
  0.4438725868765618  0.7780637065617182  0.4653851897142461   T   T   T
  0.7777774012820223  0.7777785307692885  0.4652972465161167   T   T   T
 -0.1115786502919295  0.2225645050159823  0.5590265894428064   T   T   T
  0.2223474786092798  0.2225645050159827  0.5590265894428064   T   T   T
  0.5555555555555554  0.2222222222222224  0.5574406064159143   T   T   T
 -0.1111111111111111  0.5555555555555555  0.5583641040162726   T   T   T
  0.2223474786092797  0.5550880163747377  0.5590265894428064   T   T   T
  0.5558978383493154  0.5550880163747379  0.5590265894428064   T   T   T
 -0.1115786502919304  0.8890141452759470  0.5590265894428079   T   T   T
  0.2222222222222222  0.8888888888888888  0.5586222832510955   T   T   T
  0.5558978383493167  0.8890141452759481  0.5590265894428079   T   T   T
 -0.0004055931176980  0.0002027965588497  0.6541794449453567   T   T   T
  0.3335361298921821  0.0002027965588491  0.6541794449453567   T   T   T
  0.6665485935398471  0.0002361462536392  0.6548194046110082   T   T   T
 -0.0000547515435888  0.3334428364205110  0.6538670160713790   T   T   T
  0.3335694795869725  0.3332152602065140  0.6548194046110067   T   T   T
  0.6665485935398466  0.3332152602065138  0.6548194046110067   T   T   T
 -0.0000547515435876  0.6666119151230772  0.6538670160713790   T   T   T
  0.3335361298921821  0.6662610735489690  0.6541794449453567   T   T   T
  0.6667761697538459  0.6666119151230770  0.6538670160713790   T   T   T
  0.5555555555555556  0.2222222222222222  0.7507082806706058   T   T   T
