Au Hg
 1.0000000000000000
     8.6549870017233435    0.0000000000000000    0.0000000000000000
     4.3274935008616717    7.4954386129165247    0.0000000000000000
     0.0000000000000000    0.0000000000000000   27.0667672948810178
 Au  Hg 
  36   1
Selective dynamics
Direct
  0.0000000000000000  0.0000000000000000  0.3694567545157579   F   F   F
  0.3333333333333333  0.0000000000000000  0.3694567545157579   F   F   F
  0.6666666666666666  0.0000000000000000  0.3694567545157579   F   F   F
  0.0000000000000000  0.3333333333333333  0.3694567545157579   F   F   F
  0.3333333333333334  0.3333333333333333  0.3694567545157579   F   F   F
  0.6666666666666666  0.3333333333333333  0.3694567545157579   F   F   F
  0.0000000000000000  0.6666666666666666  0.3694567545157579   F   F   F
  0.3333333333333333  0.6666666666666666  0.3694567545157579   F   F   F
  0.6666666666666667  0.6666666666666666  0.3694567545157579   F   F   F
  0.1105392535432273  0.1113970398950531  0.4653851897142450   T   T   T
  0.4444440679486881  0.1111118641026238  0.4652972465161175   T   T   T
  0.7780637065617183  0.1113970398950525  0.4653851897142450   T   T   T
  0.1110280587451929  0.4443613920785278  0.4639150139039913   T   T   T
  0.4446105491762803  0.4443613920785265  0.4639150139039914   T   T   T
  0.7780637065617189  0.4438725868765620  0.4653851897142450   T   T   T
  0.1110280587451929  0.7779438825096142  0.4639150139039913   T   T   T
  0.4444440679486864  0.7777774012820236  0.4652972465161175   T   T   T
  0.7777785307692905  0.7777774012820236  0.4652972465161161   T   T   T
 -0.1111111111111115  0.2222222222222229  0.5586222832510932   T   T   T
  0.2225645050159832  0.2223474786092795  0.5590265894428067   T   T   T
  0.5550880163747373  0.2223474786092789  0.5590265894428083   T   T   T
 -0.1109858547240552  0.5558978383493172  0.5590265894428073   T   T   T
  0.2222222222222216  0.5555555555555555  0.5574406064159150   T   T   T
  0.5550880163747353  0.5558978383493183  0.5590265894428073   T   T   T
 -0.1109858547240546  0.8884213497080721  0.5590265894428073   T   T   T
  0.2225645050159834  0.8884213497080704  0.5590265894428073   T   T   T
  0.5555555555555556  0.8888888888888888  0.5583641040162748   T   T   T
  0.0002027965588489 -0.0004055931176979  0.6541794449453529   T   T   T
  0.3334428364205101 -0.0000547515435880  0.6538670160713832   T   T   T
  0.6666119151230780 -0.0000547515435883  0.6538670160713839   T   T   T
  0.0002027965588490  0.3335361298921828  0.6541794449453529   T   T   T
  0.3332152602065140  0.3335694795869720  0.6548194046110065   T   T   T
  0.6662610735489700  0.3335361298921823  0.6541794449453529   T   T   T
  0.0002361462536390  0.6665485935398471  0.6548194046110065   T   T   T
  0.3332152602065144  0.6665485935398470  0.6548194046110065   T   T   T
  0.6666119151230777  0.6667761697538445  0.6538670160713842   T   T   T
  0.2222222222222223  0.5555555555555555  0.7507082806706051   T   T   T
