Au Hg
 1.0000000000000000
     8.6549870017233435    0.0000000000000000    0.0000000000000000
     4.3274935008616717    7.4954386129165247    0.0000000000000000
     0.0000000000000000    0.0000000000000000   27.0667672948810178
 Au  Hg 
  36   1
Selective dynamics
Direct
  0.0000000000000000  0.0000000000000000  0.3694567545157579   F   F   F
  0.3333333333333333  0.0000000000000000  0.3694567545157579   F   F   F
  0.6666666666666666  0.0000000000000000  0.3694567545157579   F   F   F
  0.0000000000000000  0.3333333333333333  0.3694567545157579   F   F   F
  0.3333333333333334  0.3333333333333333  0.3694567545157579   F   F   F
  0.6666666666666666  0.3333333333333333  0.3694567545157579   F   F   F
  0.0000000000000000  0.6666666666666666  0.3694567545157579   F   F   F
  0.3333333333333333  0.6666666666666666  0.3694567545157579   F   F   F
  0.6666666666666667  0.6666666666666666  0.3694567545157579   F   F   F
  0.1111865175692145  0.1105537654279506  0.4647759386789183   T   T   T
  0.4449263836695018  0.1105537654279509  0.4647759386789183   T   T   T
  0.7777777777777781  0.1111111111111104  0.4656955038933163   T   T   T
  0.1111111111111111  0.4444444444444444  0.4637649791130894   T   T   T
  0.4449263836695018  0.4445198509025483  0.4647759386789183   T   T   T
  0.7772204320946166  0.4445198509025476  0.4647759386789183   T   T   T
  0.1111865175692134  0.7782597170028352  0.4647759386789183   T   T   T
  0.4444444444444444  0.7777777777777778  0.4658586582007774   T   T   T
  0.7772204320946163  0.7782597170028350  0.4647759386789181   T   T   T
 -0.1106500260463267  0.2226833072870063  0.5587513496819557   T   T   T
  0.2221225223893055  0.2224216218880556  0.5586059711430836   T   T   T
  0.5546333854259869  0.2226833072870062  0.5587513496819557   T   T   T
 -0.1109117114452764  0.5554558557226376  0.5586059711430836   T   T   T
  0.2221225223893061  0.5554558557226378  0.5586059711430844   T   T   T
  0.5555144669522518  0.5556377327621632  0.5592091082200873   T   T   T
 -0.1106500260463260  0.8879667187593191  0.5587513496819557   T   T   T
  0.2223043994288322  0.8888478002855824  0.5592091082200873   T   T   T
  0.5555144669522525  0.8888478002855824  0.5592091082200873   T   T   T
 -0.0000384482346873  0.0000192241173432  0.6537091758195601   T   T   T
  0.3330289847212434  0.0006086972241799  0.6547558090115038   T   T   T
  0.6666858907840104  0.0000192241173433  0.6537091758195601   T   T   T
 -0.0002343359955624  0.3330989973377698  0.6544929545961402   T   T   T
  0.3338020053244593  0.3330989973377698  0.6544929545961402   T   T   T
  0.6666858907840103  0.3332948850986457  0.6537091758195634   T   T   T
 -0.0002343359955625  0.6671353386577917  0.6544929545961429   T   T   T
  0.3330289847212441  0.6663623180545760  0.6547558090115038   T   T   T
  0.6672753638908465  0.6663623180545750  0.6547558090115038   T   T   T
  0.1111111111111111  0.4444444444444444  0.7500221279268087   T   T   T
