Au Hg
 1.0000000000000000
     8.6549870017233435    0.0000000000000000    0.0000000000000000
     4.3274935008616717    7.4954386129165247    0.0000000000000000
     0.0000000000000000    0.0000000000000000   27.0667672948810178
 Au  Hg 
  36   1
Selective dynamics
Direct
  0.0000000000000000  0.0000000000000000  0.3694567545157579   F   F   F
  0.3333333333333333  0.0000000000000000  0.3694567545157579   F   F   F
  0.6666666666666666  0.0000000000000000  0.3694567545157579   F   F   F
  0.0000000000000000  0.3333333333333333  0.3694567545157579   F   F   F
  0.3333333333333334  0.3333333333333333  0.3694567545157579   F   F   F
  0.6666666666666666  0.3333333333333333  0.3694567545157579   F   F   F
  0.0000000000000000  0.6666666666666666  0.3694567545157579   F   F   F
  0.3333333333333333  0.6666666666666666  0.3694567545157579   F   F   F
  0.6666666666666667  0.6666666666666666  0.3694567545157579   F   F   F
  0.1102441792452623  0.1115445770440350  0.4643115683838163   T   T   T
  0.4448779103773687  0.1115445770440346  0.4643115683838164   T   T   T
  0.7778340829587359  0.1109985007491948  0.4628607183240102   T   T   T
  0.1111195681731514  0.4444275303203634  0.4659731367776148   T   T   T
  0.4443318340825270  0.4445007496254024  0.4628607183240102   T   T   T
  0.7778340829587358  0.4445007496254018  0.4628607183240108   T   T   T
  0.1111195681731519  0.7777862348398183  0.4659731367776140   T   T   T
  0.4448779103773687  0.7769108459119290  0.4643115683838174   T   T   T
  0.7777608636536967  0.7777862348398179  0.4659731367776140   T   T   T
 -0.1108007282780381  0.2220670308056853  0.5571503119752960   T   T   T
  0.2224165655718015  0.2218335355230650  0.5595945889234845   T   T   T
  0.5554003641390209  0.2220670308056848  0.5571503119752942   T   T   T
 -0.1113238568428920  0.5553428098237726  0.5600421795426249   T   T   T
  0.2226477136857877  0.5553428098237728  0.5600421795426249   T   T   T
  0.5554003641390193  0.5558659383886283  0.5571503119752957   T   T   T
 -0.1113238568428913  0.8893143803524509  0.5600421795426249   T   T   T
  0.2224165655718007  0.8890832322384671  0.5595945889234846   T   T   T
  0.5551668688563998  0.8890832322384666  0.5595945889234845   T   T   T
 -0.0002956934871818  0.0003865632563907  0.6548787490494101   T   T   T
  0.3333333333333333  0.0000000000000001  0.6543608044972649   T   T   T
  0.6665757968974571  0.0003865632563911  0.6548787490494092   T   T   T
 -0.0002956934871815  0.3332424635641239  0.6548787490494101   T   T   T
  0.3337198965897244  0.3332424635641246  0.6548787490494092   T   T   T
  0.6666666666666666  0.3333333333333333  0.6483184539659618   T   T   T
 -0.0000000000000003  0.6666666666666666  0.6541357515444226   T   T   T
  0.3337198965897237  0.6663709731794850  0.6548787490494101   T   T   T
  0.6665757968974575  0.6663709731794846  0.6548787490494101   T   T   T
  0.6666666666666666  0.3333333333333333  0.7590382605982386   T   T   T
