Au Hg
 1.0000000000000000
     8.6549870017233435    0.0000000000000000    0.0000000000000000
     4.3274935008616717    7.4954386129165247    0.0000000000000000
     0.0000000000000000    0.0000000000000000   27.0667672948810178
 Au  Hg 
  36   1
Selective dynamics
Direct
  0.0000000000000000  0.0000000000000000  0.3694567545157579   F   F   F
  0.3333333333333333  0.0000000000000000  0.3694567545157579   F   F   F
  0.6666666666666666  0.0000000000000000  0.3694567545157579   F   F   F
  0.0000000000000000  0.3333333333333333  0.3694567545157579   F   F   F
  0.3333333333333334  0.3333333333333333  0.3694567545157579   F   F   F
  0.6666666666666666  0.3333333333333333  0.3694567545157579   F   F   F
  0.0000000000000000  0.6666666666666666  0.3694567545157579   F   F   F
  0.3333333333333333  0.6666666666666666  0.3694567545157579   F   F   F
  0.6666666666666667  0.6666666666666666  0.3694567545157579   F   F   F
  0.1110941969870292  0.1111195681731527  0.4659731367776148   T   T   T
  0.4444529015064848  0.1111195681731530  0.4659731367776164   T   T   T
  0.7782112437107022  0.1102441792452623  0.4643115683838162   T   T   T
  0.1111674162920697  0.4443318340825280  0.4628607183240097   T   T   T
  0.4435775125785955  0.4448779103773692  0.4643115683838161   T   T   T
  0.7782112437107016  0.4448779103773702  0.4643115683838172   T   T   T
  0.1111674162920698  0.7778340829587364  0.4628607183240098   T   T   T
  0.4444529015064854  0.7777608636536982  0.4659731367776148   T   T   T
  0.7776651674158617  0.7778340829587366  0.4628607183240105   T   T   T
 -0.1114997978102677  0.2224165655718002  0.5595945889234858   T   T   T
  0.2220094764904403  0.2226477136857860  0.5600421795426261   T   T   T
  0.5557498989051345  0.2224165655717997  0.5595945889234866   T   T   T
 -0.1112663025276462  0.5554003641390181  0.5571503119752945   T   T   T
  0.2225326050552958  0.5554003641390185  0.5571503119752935   T   T   T
  0.5557498989051345  0.5551668688563979  0.5595945889234849   T   T   T
 -0.1112663025276463  0.8891992717219617  0.5571503119752943   T   T   T
  0.2220094764904418  0.8886761431571054  0.5600421795426261   T   T   T
  0.5559810470191198  0.8886761431571060  0.5600421795426261   T   T   T
 -0.0000908697692085 -0.0002956934871826  0.6548787490494112   T   T   T
  0.3333333333333336 -0.0000000000000006  0.6541357515444237   T   T   T
  0.6670532299230586 -0.0002956934871828  0.6548787490494112   T   T   T
 -0.0000908697692092  0.3337198965897244  0.6548787490494112   T   T   T
  0.3330376398461511  0.3337198965897240  0.6548787490494112   T   T   T
  0.6666666666666671  0.3333333333333325  0.6543608044972694   T   T   T
  0.0000000000000000  0.6666666666666666  0.6483184539659577   T   T   T
  0.3330376398461509  0.6665757968974573  0.6548787490494110   T   T   T
  0.6670532299230585  0.6665757968974575  0.6548787490494110   T   T   T
  0.0000000000000000  0.6666666666666666  0.7590382605982314   T   T   T
