Au Hg
 1.0000000000000000
     8.6549870017233435    0.0000000000000000    0.0000000000000000
     4.3274935008616717    7.4954386129165247    0.0000000000000000
     0.0000000000000000    0.0000000000000000   27.0667672948810178
 Au  Hg 
  36   1
Selective dynamics
Direct
  0.0000000000000000  0.0000000000000000  0.3694567545157579   F   F   F
  0.3333333333333333  0.0000000000000000  0.3694567545157579   F   F   F
  0.6666666666666666  0.0000000000000000  0.3694567545157579   F   F   F
  0.0000000000000000  0.3333333333333333  0.3694567545157579   F   F   F
  0.3333333333333334  0.3333333333333333  0.3694567545157579   F   F   F
  0.6666666666666666  0.3333333333333333  0.3694567545157579   F   F   F
  0.0000000000000000  0.6666666666666666  0.3694567545157579   F   F   F
  0.3333333333333333  0.6666666666666666  0.3694567545157579   F   F   F
  0.6666666666666667  0.6666666666666666  0.3694567545157579   F   F   F
  0.1111195681731521  0.1110941969870290  0.4659731367776158   T   T   T
  0.4443318340825282  0.1111674162920685  0.4628607183240094   T   T   T
  0.7778340829587368  0.1111674162920684  0.4628607183240101   T   T   T
  0.1111195681731524  0.4444529015064849  0.4659731367776158   T   T   T
  0.4448779103773703  0.4435775125785925  0.4643115683838164   T   T   T
  0.7777608636536977  0.4444529015064846  0.4659731367776158   T   T   T
  0.1102441792452604  0.7782112437107019  0.4643115683838163   T   T   T
  0.4448779103773706  0.7782112437107020  0.4643115683838163   T   T   T
  0.7778340829587364  0.7776651674158604  0.4628607183240112   T   T   T
 -0.1113238568428926  0.2220094764904379  0.5600421795426268   T   T   T
  0.2226477136857864  0.2220094764904389  0.5600421795426255   T   T   T
  0.5554003641390198  0.2225326050552934  0.5571503119752949   T   T   T
 -0.1113238568428937  0.5559810470191192  0.5600421795426268   T   T   T
  0.2224165655718021  0.5557498989051318  0.5595945889234869   T   T   T
  0.5551668688563985  0.5557498989051325  0.5595945889234869   T   T   T
 -0.1108007282780386  0.8887336974723516  0.5571503119752950   T   T   T
  0.2224165655718004  0.8885002021897282  0.5595945889234853   T   T   T
  0.5554003641390181  0.8887336974723522  0.5571503119752946   T   T   T
 -0.0002956934871819 -0.0000908697692089  0.6548787490494128   T   T   T
  0.3337198965897236 -0.0000908697692085  0.6548787490494066   T   T   T
  0.6666666666666673 -0.0000000000000015  0.6483184539659610   T   T   T
 -0.0000000000000003  0.3333333333333333  0.6541357515444218   T   T   T
  0.3337198965897238  0.3330376398461511  0.6548787490494128   T   T   T
  0.6665757968974576  0.3330376398461503  0.6548787490494128   T   T   T
 -0.0002956934871827  0.6670532299230572  0.6548787490494126   T   T   T
  0.3333333333333333  0.6666666666666666  0.6543608044972695   T   T   T
  0.6665757968974564  0.6670532299230572  0.6548787490494128   T   T   T
  0.6666666666666666 -0.0000000000000000  0.7590382605982371   T   T   T
