Au Hg
 1.0000000000000000
     8.6549870017233435    0.0000000000000000    0.0000000000000000
     4.3274935008616717    7.4954386129165247    0.0000000000000000
     0.0000000000000000    0.0000000000000000   27.0667672948810178
 Au  Hg 
  36   1
Selective dynamics
Direct
  0.0000000000000000  0.0000000000000000  0.3694567545157579   F   F   F
  0.3333333333333333  0.0000000000000000  0.3694567545157579   F   F   F
  0.6666666666666666  0.0000000000000000  0.3694567545157579   F   F   F
  0.0000000000000000  0.3333333333333333  0.3694567545157579   F   F   F
  0.3333333333333334  0.3333333333333333  0.3694567545157579   F   F   F
  0.6666666666666666  0.3333333333333333  0.3694567545157579   F   F   F
  0.0000000000000000  0.6666666666666666  0.3694567545157579   F   F   F
  0.3333333333333333  0.6666666666666666  0.3694567545157579   F   F   F
  0.6666666666666667  0.6666666666666666  0.3694567545157579   F   F   F
  0.1111674162920694  0.1109985007491947  0.4628607183240103   T   T   T
  0.4435775125785961  0.1115445770440347  0.4643115683838163   T   T   T
  0.7782112437107018  0.1115445770440347  0.4643115683838163   T   T   T
  0.1111674162920698  0.4445007496254022  0.4628607183240102   T   T   T
  0.4444529015064854  0.4444275303203626  0.4659731367776144   T   T   T
  0.7776651674158604  0.4445007496254020  0.4628607183240103   T   T   T
  0.1110941969870289  0.7777862348398189  0.4659731367776155   T   T   T
  0.4444529015064845  0.7777862348398185  0.4659731367776144   T   T   T
  0.7782112437107025  0.7769108459119283  0.4643115683838162   T   T   T
 -0.1112663025276469  0.2220670308056838  0.5571503119752951   T   T   T
  0.2225326050552961  0.2220670308056845  0.5571503119752951   T   T   T
  0.5557498989051342  0.2218335355230649  0.5595945889234842   T   T   T
 -0.1112663025276469  0.5558659383886263  0.5571503119752947   T   T   T
  0.2220094764904407  0.5553428098237709  0.5600421795426254   T   T   T
  0.5559810470191217  0.5553428098237709  0.5600421795426254   T   T   T
 -0.1114997978102665  0.8890832322384651  0.5595945889234839   T   T   T
  0.2220094764904404  0.8893143803524524  0.5600421795426261   T   T   T
  0.5557498989051342  0.8890832322384653  0.5595945889234831   T   T   T
 -0.0000908697692088  0.0003865632563901  0.6548787490494130   T   T   T
  0.3330376398461515  0.0003865632563911  0.6548787490494130   T   T   T
  0.6666666666666670 -0.0000000000000006  0.6543608044972602   T   T   T
 -0.0000000000000004  0.3333333333333333  0.6483184539659576   T   T   T
  0.3330376398461514  0.3332424635641238  0.6548787490494130   T   T   T
  0.6670532299230582  0.3332424635641236  0.6548787490494130   T   T   T
 -0.0000908697692088  0.6663709731794841  0.6548787490494130   T   T   T
  0.3333333333333333  0.6666666666666666  0.6541357515444167   T   T   T
  0.6670532299230574  0.6663709731794842  0.6548787490494130   T   T   T
  0.0000000000000000  0.3333333333333333  0.7590382605982307   T   T   T
