Au Hg
 1.0000000000000000
     8.6549870017233435    0.0000000000000000    0.0000000000000000
     4.3274935008616717    7.4954386129165247    0.0000000000000000
     0.0000000000000000    0.0000000000000000   27.0667672948810178
 Au  Hg 
  36   1
Selective dynamics
Direct
  0.0000000000000000  0.0000000000000000  0.3694567545157579   F   F   F
  0.3333333333333333  0.0000000000000000  0.3694567545157579   F   F   F
  0.6666666666666666  0.0000000000000000  0.3694567545157579   F   F   F
  0.0000000000000000  0.3333333333333333  0.3694567545157579   F   F   F
  0.3333333333333334  0.3333333333333333  0.3694567545157579   F   F   F
  0.6666666666666666  0.3333333333333333  0.3694567545157579   F   F   F
  0.0000000000000000  0.6666666666666666  0.3694567545157579   F   F   F
  0.3333333333333333  0.6666666666666666  0.3694567545157579   F   F   F
  0.6666666666666667  0.6666666666666666  0.3694567545157579   F   F   F
  0.1115445770440369  0.1102441792452606  0.4643115683838168   T   T   T
  0.4444275303203628  0.1111195681731529  0.4659731367776152   T   T   T
  0.7777862348398179  0.1111195681731525  0.4659731367776152   T   T   T
  0.1115445770440368  0.4448779103773713  0.4643115683838167   T   T   T
  0.4445007496254023  0.4443318340825286  0.4628607183240111   T   T   T
  0.7769108459119261  0.4448779103773703  0.4643115683838167   T   T   T
  0.1109985007491952  0.7778340829587371  0.4628607183240094   T   T   T
  0.4445007496254034  0.7778340829587359  0.4628607183240101   T   T   T
  0.7777862348398181  0.7777608636536969  0.4659731367776151   T   T   T
 -0.1109167677615328  0.2224165655717991  0.5595945889234866   T   T   T
  0.2218335355230657  0.2224165655718009  0.5595945889234856   T   T   T
  0.5553428098237737  0.2226477136857858  0.5600421795426274   T   T   T
 -0.1109167677615315  0.5551668688563962  0.5595945889234833   T   T   T
  0.2220670308056864  0.5554003641390195  0.5571503119752957   T   T   T
  0.5558659383886281  0.5554003641390186  0.5571503119752970   T   T   T
 -0.1106856196475468  0.8886761431571059  0.5600421795426260   T   T   T
  0.2220670308056863  0.8891992717219607  0.5571503119752964   T   T   T
  0.5553428098237739  0.8886761431571059  0.5600421795426250   T   T   T
  0.0003865632563901 -0.0002956934871819  0.6548787490494149   T   T   T
  0.3332424635641246 -0.0002956934871817  0.6548787490494083   T   T   T
  0.6666666666666672 -0.0000000000000013  0.6541357515444212   T   T   T
  0.0000000000000004  0.3333333333333324  0.6543608044972669   T   T   T
  0.3332424635641250  0.3337198965897231  0.6548787490494149   T   T   T
  0.6663709731794851  0.3337198965897233  0.6548787490494149   T   T   T
  0.0003865632563905  0.6665757968974573  0.6548787490494083   T   T   T
  0.3333333333333333  0.6666666666666666  0.6483184539659654   T   T   T
  0.6663709731794851  0.6665757968974575  0.6548787490494083   T   T   T
  0.3333333333333333  0.6666666666666666  0.7590382605982426   T   T   T
