Au Hg
 1.0000000000000000
     8.6549870017233435    0.0000000000000000    0.0000000000000000
     4.3274935008616717    7.4954386129165247    0.0000000000000000
     0.0000000000000000    0.0000000000000000   27.0667672948810178
 Au  Hg 
  36   1
Selective dynamics
Direct
  0.0000000000000000  0.0000000000000000  0.3694567545157579   F   F   F
  0.3333333333333333  0.0000000000000000  0.3694567545157579   F   F   F
  0.6666666666666666  0.0000000000000000  0.3694567545157579   F   F   F
  0.0000000000000000  0.3333333333333333  0.3694567545157579   F   F   F
  0.3333333333333334  0.3333333333333333  0.3694567545157579   F   F   F
  0.6666666666666666  0.3333333333333333  0.3694567545157579   F   F   F
  0.0000000000000000  0.6666666666666666  0.3694567545157579   F   F   F
  0.3333333333333333  0.6666666666666666  0.3694567545157579   F   F   F
  0.6666666666666667  0.6666666666666666  0.3694567545157579   F   F   F
  0.1111674162920695  0.1111674162920681  0.4628607183240100   T   T   T
  0.4444529015064856  0.1110941969870288  0.4659731367776155   T   T   T
  0.7776651674158623  0.1111674162920678  0.4628607183240100   T   T   T
  0.1110941969870299  0.4444529015064845  0.4659731367776155   T   T   T
  0.4444529015064859  0.4444529015064844  0.4659731367776155   T   T   T
  0.7782112437107046  0.4435775125785906  0.4643115683838173   T   T   T
  0.1111674162920692  0.7776651674158616  0.4628607183240100   T   T   T
  0.4435775125785922  0.7782112437107033  0.4643115683838173   T   T   T
  0.7782112437107047  0.7782112437107033  0.4643115683838173   T   T   T
 -0.1112663025276464  0.2225326050552924  0.5571503119752965   T   T   T
  0.2220094764904409  0.2220094764904395  0.5600421795426260   T   T   T
  0.5559810470191192  0.2220094764904395  0.5600421795426260   T   T   T
 -0.1114997978102683  0.5557498989051329  0.5595945889234867   T   T   T
  0.2220094764904405  0.5559810470191190  0.5600421795426260   T   T   T
  0.5557498989051350  0.5557498989051329  0.5595945889234867   T   T   T
 -0.1112663025276468  0.8887336974723523  0.5571503119752965   T   T   T
  0.2225326050552941  0.8887336974723525  0.5571503119752965   T   T   T
  0.5557498989051350  0.8885002021897299  0.5595945889234867   T   T   T
  0.0000000000000007  0.0000000000000002  0.6483184539659661   T   T   T
  0.3330376398461524 -0.0000908697692085  0.6548787490494116   T   T   T
  0.6670532299230564 -0.0000908697692086  0.6548787490494116   T   T   T
 -0.0000908697692085  0.3330376398461521  0.6548787490494116   T   T   T
  0.3333333333333334  0.3333333333333333  0.6541357515444247   T   T   T
  0.6670532299230563  0.3330376398461523  0.6548787490494116   T   T   T
 -0.0000908697692086  0.6670532299230568  0.6548787490494116   T   T   T
  0.3330376398461526  0.6670532299230567  0.6548787490494116   T   T   T
  0.6666666666666667  0.6666666666666666  0.6543608044972704   T   T   T
  0.0000000000000000  0.0000000000000000  0.7590382605982420   T   T   T
