Au Hg
 1.0000000000000000
     8.6549870017233435    0.0000000000000000    0.0000000000000000
     4.3274935008616717    7.4954386129165247    0.0000000000000000
     0.0000000000000000    0.0000000000000000   27.0667672948810178
 Au  Hg 
  36   1
Selective dynamics
Direct
  0.0000000000000000  0.0000000000000000  0.3694567545157579   F   F   F
  0.3333333333333333  0.0000000000000000  0.3694567545157579   F   F   F
  0.6666666666666666  0.0000000000000000  0.3694567545157579   F   F   F
  0.0000000000000000  0.3333333333333333  0.3694567545157579   F   F   F
  0.3333333333333334  0.3333333333333333  0.3694567545157579   F   F   F
  0.6666666666666666  0.3333333333333333  0.3694567545157579   F   F   F
  0.0000000000000000  0.6666666666666666  0.3694567545157579   F   F   F
  0.3333333333333333  0.6666666666666666  0.3694567545157579   F   F   F
  0.6666666666666667  0.6666666666666666  0.3694567545157579   F   F   F
  0.1115445770440365  0.1115445770440353  0.4643115683838165   T   T   T
  0.4445007496254027  0.1109985007491946  0.4628607183240098   T   T   T
  0.7769108459119289  0.1115445770440354  0.4643115683838165   T   T   T
  0.1109985007491951  0.4445007496254016  0.4628607183240097   T   T   T
  0.4445007496254030  0.4445007496254020  0.4628607183240097   T   T   T
  0.7777862348398186  0.4444275303203627  0.4659731367776150   T   T   T
  0.1115445770440361  0.7769108459119277  0.4643115683838164   T   T   T
  0.4444275303203632  0.7777862348398179  0.4659731367776148   T   T   T
  0.7777862348398185  0.7777862348398182  0.4659731367776148   T   T   T
 -0.1109167677615319  0.2218335355230640  0.5595945889234857   T   T   T
  0.2220670308056860  0.2220670308056847  0.5571503119752957   T   T   T
  0.5558659383886293  0.2220670308056846  0.5571503119752957   T   T   T
 -0.1106856196475470  0.5553428098237729  0.5600421795426255   T   T   T
  0.2220670308056865  0.5558659383886271  0.5571503119752944   T   T   T
  0.5553428098237738  0.5553428098237729  0.5600421795426255   T   T   T
 -0.1109167677615315  0.8890832322384660  0.5595945889234857   T   T   T
  0.2218335355230657  0.8890832322384661  0.5595945889234857   T   T   T
  0.5553428098237742  0.8893143803524517  0.5600421795426255   T   T   T
  0.0000000000000004 -0.0000000000000004  0.6543608044972659   T   T   T
  0.3332424635641243  0.0003865632563911  0.6548787490494110   T   T   T
  0.6663709731794846  0.0003865632563907  0.6548787490494110   T   T   T
  0.0003865632563906  0.3332424635641246  0.6548787490494110   T   T   T
  0.3333333333333329  0.3333333333333341  0.6483184539659619   T   T   T
  0.6663709731794852  0.3332424635641237  0.6548787490494110   T   T   T
  0.0003865632563912  0.6663709731794843  0.6548787490494110   T   T   T
  0.3332424635641248  0.6663709731794843  0.6548787490494110   T   T   T
  0.6666666666666667  0.6666666666666666  0.6541357515444225   T   T   T
  0.3333333333333334  0.3333333333333333  0.7590382605982393   T   T   T
