37
Lattice="8.654987001723343 0.0 0.0 4.327493500861672 7.495438612916525 0.0 0.0 0.0 31.066767294881018" Properties=species:S:1:pos:R:3:move_mask:L:1:tags:I:1:forces:R:3:energies:R:1 energy=-111.93799591064453 stress="-4.8697191232349724e-05 -8.601739112656936e-12 -3.421317396057333e-11 -8.601739112656936e-12 -4.267118129064329e-05 2.83861623984194e-07 -3.421317396057333e-11 2.83861623984194e-07 -0.00027447150205262005" free_energy=-111.93799591064453 pbc="T T F"
Au       0.00000000       0.00000000      12.00000000  F        4      -0.00073944       0.00000088      -0.61899471      -2.86532474
Au       2.88499567       0.00000000      12.00000000  F        4       0.00073853      -0.00000041      -0.61899543      -2.86532474
Au       5.76999133       0.00000000      12.00000000  F        4       0.00000084      -0.00024534      -0.61811650      -2.86531425
Au       1.44249783       2.49847954      12.00000000  F        4      -0.00000025      -0.00049666      -0.61856109      -2.86541152
Au       4.32749350       2.49847954      12.00000000  F        4      -0.00000877       0.00049299      -0.61998016      -2.86526680
Au       7.21248917       2.49847954      12.00000000  F        4       0.00000961       0.00049297      -0.61997926      -2.86526728
Au       2.88499567       4.99695908      12.00000000  F        4       0.00109358       0.00034541      -0.61923265      -2.86531544
Au       5.76999133       4.99695908      12.00000000  F        4       0.00000101      -0.00101330      -0.62147331      -2.86520267
Au       8.65498700       4.99695908      12.00000000  F        4      -0.00109537       0.00034517      -0.61923289      -2.86531520
Au       1.44249783       0.83282651      14.35558910  F        3      -0.00000020       0.00813932       0.64112878      -3.30279398
Au       4.32749350       0.83282651      14.35558910  F        3      -0.00034921      -0.00862690       0.64740336      -3.30242634
Au       7.21248917       0.83282651      14.35558910  F        3       0.00034946      -0.00862643       0.64740169      -3.30242634
Au       2.88499567       3.33130605      14.35558910  F        3      -0.00271517      -0.00072298       0.64755052      -3.30240178
Au       5.76999133       3.33130605      14.35558910  F        3       0.00000058       0.00060139       0.64109397      -3.30301666
Au       8.65498700       3.33130605      14.35558910  F        3       0.00271407      -0.00072410       0.64754987      -3.30240178
Au       4.32749350       5.82978559      14.35558910  F        3      -0.01398453       0.00103008       0.64342308      -3.30277634
Au       7.21248917       5.82978559      14.35558910  F        3       0.01398383       0.00103041       0.64342302      -3.30277634
Au      10.09748484       5.82978559      14.35558910  F        3       0.00000156       0.00855236       0.66728354      -3.30150938
Au       0.00014223       1.66557077      16.87039051  T        2      -0.00047846       0.00344523      -0.01870747      -3.27527738
Au       2.88485303       1.66557055      16.87039075  T        2       0.00047763       0.00344799      -0.01870823      -3.27527761
Au       5.76999165       1.66549878      16.86666379  T        2       0.00000037      -0.00115111      -0.02738693      -3.28458166
Au       1.44249763       4.15811857      16.88479607  T        2       0.00000056       0.00249236      -0.02284267      -3.28477812
Au       4.32736004       4.16421005      16.86666358  T        2       0.00044521       0.00069056      -0.02160739      -3.28203392
Au       7.21262289       4.16420982      16.86666342  T        2      -0.00044645       0.00068790      -0.02160717      -3.28203416
Au       2.89020415       6.66561915      16.88479625  T        2      -0.00736087      -0.00137327      -0.01916645      -3.28014565
Au       5.76999116       6.66277665      16.87039058  T        2      -0.00000242      -0.00010657      -0.02633292      -3.27052498
Au       8.64977859       6.66561927      16.88479633  T        2       0.00736433      -0.00137343      -0.01917244      -3.28014517
Au      -0.01652091      -0.00953802      19.41900705  T        1       0.00486276      -0.00108726      -0.00136884      -3.02935266
Au       2.90151651      -0.00953814      19.41900693  T        1      -0.00486450      -0.00108491      -0.00136677      -3.02935290
Au       5.76999126       0.00355983      19.41176173  T        1       0.00000154       0.00127384      -0.00611247      -2.90365720
Au       1.44249789       2.51755569      19.41900707  T        1      -0.00000148      -0.01275874       0.00983863      -2.95587707
Au       4.33035816       2.50013333      19.41316799  T        1       0.00951743       0.00054618      -0.00665261      -2.91110754
Au       7.20962451       2.50013323      19.41316765  T        1      -0.00951529       0.00054719      -0.00665305      -2.91110778
Au       2.88807865       4.99517928      19.41176158  T        1      -0.00945374      -0.00318229      -0.00309453      -2.91049767
Au       5.76999123       4.99365106      19.41316762  T        1      -0.00000093       0.00870265       0.00516939      -2.95490408
Au       8.65190429       4.99517959      19.41176168  T        1       0.00945415      -0.00318719      -0.00309291      -2.91049767
Hg       1.44249782       0.83282655      21.89524541  T        0      -0.00000001       0.00289612      -0.04282650      -0.39653856
