37
Lattice="8.654987001723343 0.0 0.0 4.327493500861672 7.495438612916525 0.0 0.0 0.0 31.066767294881018" Properties=species:S:1:pos:R:3:move_mask:L:1:tags:I:1:forces:R:3:energies:R:1 energy=-111.93799591064453 stress="-4.8697191232349724e-05 -8.601739112656936e-12 -3.421317396057333e-11 -8.601739112656936e-12 -4.267118129064329e-05 2.83861623984194e-07 -3.421317396057333e-11 2.83861623984194e-07 -0.00027447150205262005" free_energy=-111.93799591064453 pbc="T T F"
Au       0.00000000       0.00000000      12.00000000  F        4      -0.00073944       0.00000088      -0.61899471      -2.86532474
Au       2.88499567       0.00000000      12.00000000  F        4       0.00073853      -0.00000041      -0.61899543      -2.86532474
Au       5.76999133       0.00000000      12.00000000  F        4       0.00000084      -0.00024534      -0.61811650      -2.86531425
Au       1.44249783       2.49847954      12.00000000  F        4      -0.00000025      -0.00049666      -0.61856109      -2.86541152
Au       4.32749350       2.49847954      12.00000000  F        4      -0.00000877       0.00049299      -0.61998016      -2.86526680
Au       7.21248917       2.49847954      12.00000000  F        4       0.00000961       0.00049297      -0.61997926      -2.86526728
Au       2.88499567       4.99695908      12.00000000  F        4       0.00109358       0.00034541      -0.61923265      -2.86531544
Au       5.76999133       4.99695908      12.00000000  F        4       0.00000101      -0.00101330      -0.62147331      -2.86520267
Au       8.65498700       4.99695908      12.00000000  F        4      -0.00109537       0.00034517      -0.61923289      -2.86531520
Au       1.44249783       0.83282651      14.35558910  F        3      -0.00000020       0.00813932       0.64112878      -3.30279398
Au       4.32749350       0.83282651      14.35558910  F        3      -0.00034921      -0.00862690       0.64740336      -3.30242634
Au       7.21248917       0.83282651      14.35558910  F        3       0.00034946      -0.00862643       0.64740169      -3.30242634
Au       2.88499567       3.33130605      14.35558910  F        3      -0.00271517      -0.00072298       0.64755052      -3.30240178
Au       5.76999133       3.33130605      14.35558910  F        3       0.00000058       0.00060139       0.64109397      -3.30301666
Au       8.65498700       3.33130605      14.35558910  F        3       0.00271407      -0.00072410       0.64754987      -3.30240178
Au       4.32749350       5.82978559      14.35558910  F        3      -0.01398453       0.00103008       0.64342308      -3.30277634
Au       7.21248917       5.82978559      14.35558910  F        3       0.01398383       0.00103041       0.64342302      -3.30277634
Au      10.09748484       5.82978559      14.35558910  F        3       0.00000156       0.00855236       0.66728354      -3.30150938
Au      -0.00034258       1.66413332      16.87420653  T        2      -0.00047846       0.00344523      -0.01870747      -3.27527738
Au       2.88533794       1.66413322      16.87420680  T        2       0.00047763       0.00344799      -0.01870823      -3.27527761
Au       5.76999152       1.66649882      16.86649652  T        2       0.00000037      -0.00115111      -0.02738693      -3.28458166
Au       1.44249764       4.16247348      16.86998730  T        2       0.00000056       0.00249236      -0.02284267      -3.28477812
Au       4.32842831       4.16505313      16.87002379  T        2       0.00044521       0.00069056      -0.02160739      -3.28203392
Au       7.21155454       4.16505346      16.87002351  T        2      -0.00044645       0.00068790      -0.02160717      -3.28203416
Au       2.88971265       6.66584650      16.88294866  T        2      -0.00736087      -0.00137327      -0.01916645      -3.28014565
Au       5.76999163       6.66125542      16.86232278  T        2      -0.00000242      -0.00010657      -0.02633292      -3.27052498
Au       8.65026976       6.66584624      16.88294936  T        2       0.00736433      -0.00137343      -0.01917244      -3.28014517
Au      -0.02454321      -0.00161123      19.40535606  T        1       0.00486276      -0.00108726      -0.00136884      -3.02935266
Au       2.90953883      -0.00161153      19.40535580  T        1      -0.00486450      -0.00108491      -0.00136677      -3.02935290
Au       5.76999135       0.00146932      19.41050928  T        1       0.00000154       0.00127384      -0.00611247      -2.90365720
Au       1.44249785       2.50057026      19.42441524  T        1      -0.00000148      -0.01275874       0.00983863      -2.95587707
Au       4.32949709       2.50566034      19.41281580  T        1       0.00951743       0.00054618      -0.00665261      -2.91110754
Au       7.21048562       2.50566026      19.41281596  T        1      -0.00951529       0.00054719      -0.00665305      -2.91110778
Au       2.88316831       4.98836539      19.41372802  T        1      -0.00945374      -0.00318229      -0.00309453      -2.91049767
Au       5.76999152       4.99531758      19.42413280  T        1      -0.00000093       0.00870265       0.00516939      -2.95490408
Au       8.65681424       4.98836557      19.41372803  T        1       0.00945415      -0.00318719      -0.00309291      -2.91049767
Hg       1.44249777       0.00098781      21.92859938  T        0      -0.00000001       0.00289612      -0.04282650      -0.39653856
