37
Lattice="8.654987001723343 0.0 0.0 4.327493500861672 7.495438612916525 0.0 0.0 0.0 27.066767294881018" Properties=species:S:1:pos:R:3:tags:I:1:stresses:R:6:energies:R:1:forces:R:3 stress="-0.016490703410441013 2.60418480785929e-19 2.714851977104887e-18 2.60418480785929e-19 -0.016329481307775826 5.4047799047248386e-06 2.714851977104887e-18 5.4047799047248386e-06 -9.978626265971098e-05" energy=-11.047125537608355 free_energy=-11.047125537608355 pbc="T T F"
Au      -0.00002074      -0.00000142       9.66304028        4      -0.00047744      -0.00047752       0.00002294      -0.00000003      -0.00000028      -0.00000010      -0.24145630      -0.00024574       0.00000145       0.00409006
Au       2.88501641      -0.00000142       9.66304028        4      -0.00047744      -0.00047752       0.00002294      -0.00000003       0.00000028       0.00000010      -0.24145630       0.00024574       0.00000145       0.00409006
Au       5.76999133       0.00002445       9.66297507        4      -0.00047741      -0.00047767       0.00002274       0.00000020       0.00000000      -0.00000000      -0.24140504       0.00000000       0.00013335       0.00387092
Au       1.44249783       2.49851746       9.66309506        4      -0.00047719      -0.00047751       0.00002356       0.00000057       0.00000000      -0.00000000      -0.24145843      -0.00000000       0.00054372       0.00512227
Au       4.32751486       2.49851572       9.66316116        4      -0.00047708      -0.00047740       0.00002435       0.00000046       0.00000025       0.00000013      -0.24146553       0.00021267       0.00037597       0.00635432
Au       7.21246781       2.49851572       9.66316116        4      -0.00047708      -0.00047740       0.00002435       0.00000046      -0.00000025      -0.00000013      -0.24146553      -0.00021267       0.00037597       0.00635432
Au       2.88502535       4.99692287       9.66286170        4      -0.00047790      -0.00047754       0.00002207      -0.00000044       0.00000019       0.00000008      -0.24132702       0.00005937      -0.00039073       0.00295816
Au       5.76999133       4.99689671       9.66305546        4      -0.00047785      -0.00047717       0.00002335      -0.00000076      -0.00000000       0.00000000      -0.24141090      -0.00000000      -0.00066333       0.00482193
Au       8.65495731       4.99692287       9.66286170        4      -0.00047790      -0.00047754       0.00002207      -0.00000044      -0.00000019      -0.00000008      -0.24132702      -0.00005937      -0.00039073       0.00295816
Au       1.44249783       0.83311675      12.24508246        3      -0.00043947      -0.00044155      -0.00002686       0.00000248       0.00000000       0.00000000      -0.35827187       0.00000000       0.00229763      -0.01795820
Au       4.32801359       0.83323301      12.24663845        3      -0.00043912      -0.00044003      -0.00001755       0.00000224       0.00000348       0.00000073      -0.35855508       0.00118682       0.00014500      -0.00694047
Au       7.21196907       0.83323301      12.24663845        3      -0.00043912      -0.00044003      -0.00001755       0.00000224      -0.00000348      -0.00000073      -0.35855508      -0.00118682       0.00014500      -0.00694047
Au       2.88500492       3.33227413      12.24776039        3      -0.00043852      -0.00044314      -0.00001140       0.00000621      -0.00000017       0.00000048      -0.35833052       0.00023764       0.00098703       0.00019235
Au       5.76999133       3.33127916      12.25005269        3      -0.00043823      -0.00043933      -0.00000259       0.00000012       0.00000000       0.00000000      -0.35900829       0.00000000       0.00000309       0.00868352
Au       8.65497775       3.33227413      12.24776039        3      -0.00043852      -0.00044314      -0.00001140       0.00000621       0.00000017      -0.00000048      -0.35833052      -0.00023764       0.00098703       0.00019235
Au       4.32726946       5.82889607      12.24531041        3      -0.00044500      -0.00044005      -0.00002417      -0.00000613      -0.00000258      -0.00000151      -0.35772882      -0.00158896      -0.00191445      -0.01416092
Au       7.21271321       5.82889607      12.24531041        3      -0.00044500      -0.00044005      -0.00002417      -0.00000613       0.00000258       0.00000151      -0.35772882       0.00158896      -0.00191445      -0.01416092
Au      10.09748484       5.82850419      12.24391799        3      -0.00044552      -0.00044140      -0.00002312      -0.00000710      -0.00000000      -0.00000000      -0.35738760       0.00000000      -0.00046857      -0.00991784
Au      -0.00040483       1.67165391      14.79860289        2      -0.00043141      -0.00044748      -0.00003655       0.00002510       0.00000479      -0.00000276      -0.35899245       0.00169828      -0.00533076      -0.00844184
Au       2.88540050       1.67165391      14.79860289        2      -0.00043141      -0.00044748      -0.00003655       0.00002510      -0.00000479       0.00000276      -0.35899245      -0.00169828      -0.00533076      -0.00844184
Au       5.76999133       1.66471699      14.82316886        2      -0.00043197      -0.00043391       0.00000314      -0.00000542       0.00000000      -0.00000000      -0.36116762       0.00000000      -0.00076588       0.00774890
Au       1.44249783       4.16175634      14.82366481        2      -0.00044142      -0.00045399       0.00000771      -0.00000604      -0.00000000       0.00000000      -0.35795785       0.00000000       0.00288113       0.00991979
Au       4.32872356       4.16567215      14.82331831        2      -0.00044062      -0.00044130       0.00000700       0.00000619       0.00000402      -0.00000356      -0.35957224      -0.00029034       0.00001382       0.01077499
Au       7.21125911       4.16567215      14.82331831        2      -0.00044062      -0.00044130       0.00000700       0.00000619      -0.00000402       0.00000356      -0.35957224       0.00029034       0.00001382       0.01077499
Au       2.87974765       6.65883555      14.79372108        2      -0.00045657      -0.00043724      -0.00004139      -0.00001289      -0.00002393      -0.00000383      -0.35685111       0.00277022       0.00268795      -0.00701151
Au       5.76999133       6.65862370      14.78318723        2      -0.00044868      -0.00043972      -0.00007232      -0.00002256      -0.00000000      -0.00000000      -0.35774660       0.00000000       0.00634579      -0.02927918
Au       8.66023502       6.65883555      14.79372108        2      -0.00045657      -0.00043724      -0.00004139      -0.00001289       0.00002393       0.00000383      -0.35685111      -0.00277022       0.00268795      -0.00701151
Au      -0.00965245      -0.00037870      17.28115844        1      -0.00050048      -0.00050157      -0.00013516       0.00000266      -0.00003289      -0.00000198      -0.26196289      -0.02586017      -0.00119129      -0.01615520
Au       2.89464811      -0.00037870      17.28115844        1      -0.00050048      -0.00050157      -0.00013516       0.00000266       0.00003289       0.00000198      -0.26196289       0.02586017      -0.00119129      -0.01615520
Au       5.76999133      -0.00075670      17.41625311        1      -0.00046981      -0.00046254       0.00004867       0.00000473      -0.00000000      -0.00000000      -0.24731521      -0.00000000      -0.00084015      -0.00201740
Au       1.44249783       2.47901175      17.42737412        1      -0.00046364      -0.00044299       0.00007045      -0.00003556       0.00000000       0.00000000      -0.26227177       0.00000000       0.01985506       0.01917896
Au       4.32984398       2.50382525      17.41137483        1      -0.00046470      -0.00045607       0.00003830      -0.00000912      -0.00000498       0.00001700      -0.24896639      -0.00819613      -0.01082420      -0.00249365
Au       7.21013869       2.50382525      17.41137483        1      -0.00046470      -0.00045607       0.00003830      -0.00000912       0.00000498      -0.00001700      -0.24896639       0.00819613      -0.01082420      -0.00249365
Au       2.88219999       4.99213454      17.41095150        1      -0.00046946      -0.00045580       0.00003889       0.00000631       0.00000822       0.00001610      -0.24848474       0.00687107       0.01070965      -0.00327594
Au       5.76999133       5.01673986      17.42824669        1      -0.00046506      -0.00044380       0.00006872       0.00003358      -0.00000000      -0.00000000      -0.26200068       0.00000000      -0.01983814       0.02219487
Au       8.65778268       4.99213454      17.41095150        1      -0.00046946      -0.00045580       0.00003889       0.00000631      -0.00000822      -0.00001610      -0.24848474      -0.00687107       0.01070965      -0.00327594
Hg       1.44249783      -0.00001763      19.88835113        0       0.00002215       0.00009239      -0.00001793       0.00000003       0.00000000       0.00000000      -0.13233751      -0.00000000      -0.00002258       0.04585077
