37
Lattice="8.654987001723343 0.0 0.0 4.327493500861672 7.495438612916525 0.0 0.0 0.0 27.066767294881018" Properties=species:S:1:pos:R:3:move_mask:L:1:tags:I:1:stresses:R:6:energies:R:1:forces:R:3 stress="-0.01632533790654714 2.3586478316623914e-18 1.4042694573579886e-17 2.3586478316623914e-18 -0.016094876869199207 4.9084580877504733e-05 1.4042694573579886e-17 4.9084580877504733e-05 -0.00025968886301746657" energy=-11.044846216777783 free_energy=-11.044846216777783 pbc="T T F"
Au       0.00000000       0.00000000      10.00000000  F        4      -0.00048022      -0.00048157       0.00000921       0.00000036      -0.00000442      -0.00000151      -0.24090149      -0.00629081       0.00040519      -0.01573137
Au       2.88499567       0.00000000      10.00000000  F        4      -0.00048022      -0.00048157       0.00000921       0.00000036       0.00000442       0.00000151      -0.24090149       0.00629081       0.00040519      -0.01573137
Au       5.76999133       0.00000000      10.00000000  F        4      -0.00047755      -0.00047993       0.00001709       0.00000065      -0.00000000      -0.00000000      -0.24134217       0.00000000       0.00077976      -0.00411249
Au       1.44249783       2.49847954      10.00000000  F        4      -0.00047516      -0.00048035       0.00002089       0.00000877      -0.00000000      -0.00000000      -0.24149577      -0.00000000       0.01254849       0.00125599
Au       4.32749350       2.49847954      10.00000000  F        4      -0.00047288      -0.00047592       0.00003400       0.00000512       0.00000264       0.00000123      -0.24230959       0.00363826       0.00724775       0.02010005
Au       7.21248917       2.49847954      10.00000000  F        4      -0.00047288      -0.00047592       0.00003400       0.00000512      -0.00000264      -0.00000123      -0.24230959      -0.00363826       0.00724775       0.02010005
Au       2.88499567       4.99695908      10.00000000  F        4      -0.00048186      -0.00047755       0.00001230      -0.00000525      -0.00000190      -0.00000030      -0.24078938      -0.00276411      -0.00741513      -0.01063395
Au       5.76999133       4.99695908      10.00000000  F        4      -0.00048210      -0.00047458       0.00001847      -0.00000959      -0.00000000      -0.00000000      -0.24122262      -0.00000000      -0.01343109      -0.00217254
Au       8.65498700       4.99695908      10.00000000  F        4      -0.00048186      -0.00047755       0.00001230      -0.00000525       0.00000190       0.00000030      -0.24078938       0.00276411      -0.00741513      -0.01063395
Au       1.44249783       0.83662855      12.55382506  T        3      -0.00043350      -0.00043988      -0.00007800       0.00001024      -0.00000000       0.00000000      -0.35732663      -0.00000000      -0.00393212      -0.02995272
Au       4.33020219       0.83503788      12.57903899  T        3      -0.00043744      -0.00043838      -0.00003375       0.00000647       0.00001264       0.00000305      -0.35841187      -0.00111455       0.00002175      -0.01992964
Au       7.20978047       0.83503788      12.57903899  T        3      -0.00043744      -0.00043838      -0.00003375       0.00000647      -0.00001264      -0.00000305      -0.35841187       0.00111455       0.00002175      -0.01992964
Au       2.88501981       3.33667970      12.59498041  T        3      -0.00043454      -0.00045774      -0.00000102       0.00002592      -0.00000200      -0.00000114      -0.35729173      -0.00010917      -0.00401087      -0.00158011
Au       5.76999133       3.33167050      12.61725823  T        3      -0.00043224      -0.00043840       0.00003311       0.00000333       0.00000000       0.00000000      -0.36069409      -0.00000000       0.00084878       0.01206117
Au       8.65496285       3.33667970      12.59498041  T        3      -0.00043454      -0.00045774      -0.00000102       0.00002592       0.00000200       0.00000114      -0.35729173       0.00010917      -0.00401087      -0.00158011
Au       4.32448116       5.82431851      12.56082698  T        3      -0.00045659      -0.00043899      -0.00005679      -0.00002202      -0.00001046      -0.00000668      -0.35505032       0.01002103       0.00899021      -0.01673682
Au       7.21550151       5.82431851      12.56082698  T        3      -0.00045659      -0.00043899      -0.00005679      -0.00002202       0.00001046       0.00000668      -0.35505032      -0.01002103       0.00899021      -0.01673682
Au      10.09748484       5.82490555      12.56851961  T        3      -0.00046726      -0.00044835      -0.00004634      -0.00002353      -0.00000000       0.00000000      -0.35336422      -0.00000000       0.00691356      -0.01644609
Au       0.00074685       1.67692377      15.09948559  T        2      -0.00042017      -0.00045653      -0.00005498       0.00004922       0.00001388      -0.00000319      -0.35567184      -0.00391863       0.01381376       0.02518188
Au       2.88424882       1.67692377      15.09948559  T        2      -0.00042017      -0.00045653      -0.00005498       0.00004922      -0.00001388       0.00000319      -0.35567184       0.00391863       0.01381376       0.02518188
Au       5.76999133       1.66090586      15.19760096  T        2      -0.00041364      -0.00042208       0.00002040      -0.00001656       0.00000000      -0.00000000      -0.36337786      -0.00000000       0.00137985      -0.00626258
Au       1.44249783       4.16204546      15.20651539  T        2      -0.00043587      -0.00045311       0.00003945      -0.00002170       0.00000000      -0.00000000      -0.35712258      -0.00000000      -0.01079775      -0.00301894
Au       4.33194470       4.17058358      15.20637719  T        2      -0.00043705      -0.00042121       0.00003746       0.00001567       0.00001831       0.00000170      -0.36053841       0.00105358       0.00699344      -0.00148473
Au       7.20803797       4.17058358      15.20637719  T        2      -0.00043705      -0.00042121       0.00003746       0.00001567      -0.00001831      -0.00000170      -0.36053841      -0.00105358       0.00699344      -0.00148473
Au       2.87553336       6.65581715      15.08585631  T        2      -0.00047326      -0.00043634      -0.00006564      -0.00001536      -0.00004631      -0.00000847      -0.35189136       0.00381103      -0.00013617       0.02497764
Au       5.76999133       6.66234115      15.04067238  T        2      -0.00045619      -0.00043974      -0.00012337      -0.00003780      -0.00000000       0.00000000      -0.35189155       0.00000000      -0.02634076       0.03019672
Au       8.66444931       6.65581715      15.08585631  T        2      -0.00047326      -0.00043634      -0.00006564      -0.00001536       0.00004631       0.00000847      -0.35189136      -0.00381103      -0.00013617       0.02497764
Au      -0.00522159      -0.00497642      17.52068030  T        1      -0.00048230      -0.00047373      -0.00019128       0.00001209      -0.00003428      -0.00000680      -0.26628626      -0.03735117      -0.00285239       0.01987667
Au       2.89021725      -0.00497642      17.52068030  T        1      -0.00048230      -0.00047373      -0.00019128       0.00001209       0.00003428       0.00000680      -0.26628626       0.03735117      -0.00285239       0.01987667
Au       5.76999133      -0.00270741      17.80087296  T        1      -0.00042049      -0.00046402       0.00008285       0.00001495      -0.00000000      -0.00000000      -0.24851653       0.00000000      -0.00229073      -0.02228313
Au       1.44249783       2.47158145      17.86843027  T        1      -0.00044375      -0.00038933       0.00012109      -0.00004075       0.00000000       0.00000000      -0.26481593       0.00000000       0.00456281      -0.00857930
Au       4.32511887       2.49962427      17.77057729  T        1      -0.00044540      -0.00043640       0.00003954      -0.00001264       0.00000243       0.00002853      -0.25123557      -0.00094106      -0.01224206      -0.01157643
Au       7.21486380       2.49962427      17.77057729  T        1      -0.00044540      -0.00043640       0.00003954      -0.00001264      -0.00000243      -0.00002853      -0.25123557       0.00094106      -0.01224206      -0.01157643
Au       2.88354094       4.99498424      17.77085602  T        1      -0.00046548      -0.00043900       0.00003708       0.00000261       0.00000998       0.00002452      -0.24843794       0.00308699       0.00901436      -0.00641239
Au       5.76999133       5.01993665      17.87748893  T        1      -0.00044538      -0.00039253       0.00011307       0.00003718      -0.00000000      -0.00000000      -0.26375633       0.00000000      -0.01036563       0.00663699
Au       8.65644173       4.99498424      17.77085602  T        1      -0.00046548      -0.00043900       0.00003708       0.00000261      -0.00000998      -0.00002452      -0.24843794      -0.00308699       0.00901436      -0.00641239
Hg       1.44249783      -0.00000535      20.14372766  T        0       0.00003214       0.00009413      -0.00001068      -0.00000049      -0.00000000      -0.00000000      -0.14228840       0.00000000       0.00046512       0.03057530
