37
Lattice="8.654987001723343 0.0 0.0 4.327493500861672 7.495438612916525 0.0 0.0 0.0 27.066767294881018" Properties=species:S:1:pos:R:3:move_mask:L:1:tags:I:1:stresses:R:6:energies:R:1:forces:R:3 stress="-0.016247511863781212 -1.0864103454134875e-18 1.436800161201319e-17 -1.0864103454134875e-18 -0.016247511863781223 -2.637913280301329e-17 1.436800161201319e-17 -2.637913280301329e-17 0.00019355904023914431" energy=-11.049946686893215 free_energy=-11.049946686893215 pbc="T T F"
Au       0.00000000       0.00000000      10.00000000  F        4      -0.00047874      -0.00047814       0.00001926      -0.00000115      -0.00000200      -0.00000051      -0.24129666      -0.00291553      -0.00168328      -0.00110106
Au       2.88499567       0.00000000      10.00000000  F        4      -0.00047874      -0.00047814       0.00001926      -0.00000115       0.00000200       0.00000051      -0.24129666       0.00291553      -0.00168328      -0.00110106
Au       5.76999133       0.00000000      10.00000000  F        4      -0.00047802      -0.00047933       0.00001730       0.00000081       0.00000000      -0.00000000      -0.24105561       0.00000000       0.00114978      -0.00347491
Au       1.44249783       2.49847954      10.00000000  F        4      -0.00047785      -0.00047903       0.00001926       0.00000231       0.00000000       0.00000000      -0.24129666       0.00000000       0.00336656      -0.00110106
Au       4.32749350       2.49847954      10.00000000  F        4      -0.00047597      -0.00047718       0.00002581       0.00000154       0.00000266       0.00000105      -0.24159147       0.00381919       0.00220501       0.00865040
Au       7.21248917       2.49847954      10.00000000  F        4      -0.00047597      -0.00047718       0.00002581       0.00000154      -0.00000266      -0.00000105      -0.24159147      -0.00381919       0.00220501       0.00865040
Au       2.88499567       4.99695908      10.00000000  F        4      -0.00047900      -0.00047835       0.00001730      -0.00000041       0.00000070       0.00000056      -0.24105561       0.00099574      -0.00057489      -0.00347491
Au       5.76999133       4.99695908      10.00000000  F        4      -0.00047779      -0.00047536       0.00002581      -0.00000308       0.00000000       0.00000000      -0.24159147       0.00000000      -0.00441002       0.00865040
Au       8.65498700       4.99695908      10.00000000  F        4      -0.00047900      -0.00047835       0.00001730      -0.00000041      -0.00000070      -0.00000056      -0.24105561      -0.00099574      -0.00057489      -0.00347491
Au       1.44249783       0.83282651      12.57053661  T        3      -0.00043688      -0.00043688      -0.00005340      -0.00000000       0.00000000       0.00000000      -0.35800739       0.00000000      -0.00000000      -0.03251796
Au       4.33082882       0.83277693      12.58090486  T        3      -0.00044315      -0.00043977      -0.00001796      -0.00000123       0.00001725       0.00000640      -0.35748800      -0.00140212       0.00048047      -0.00165216
Au       7.20915385       0.83277693      12.58090486  T        3      -0.00044315      -0.00043977      -0.00001796      -0.00000123      -0.00001725      -0.00000640      -0.35748800       0.00140212       0.00048047      -0.00165216
Au       2.88662039       3.33421931      12.58090486  T        3      -0.00043507      -0.00044784      -0.00001796       0.00001555       0.00000756       0.00000173      -0.35748800      -0.00028496      -0.00145450      -0.00165216
Au       5.76999133       3.33130605      12.59986301  T        3      -0.00043426      -0.00043426       0.00003515      -0.00000000       0.00000000       0.00000000      -0.36025011       0.00000000      -0.00000000       0.04098931
Au       8.65336228       3.33421931      12.58090486  T        3      -0.00043507      -0.00044784      -0.00001796       0.00001555      -0.00000756      -0.00000173      -0.35748800       0.00028496      -0.00145450      -0.00165216
Au       4.32578290       5.82692191      12.58090486  T        3      -0.00044615      -0.00043676      -0.00001796      -0.00001432      -0.00000969      -0.00000466      -0.35748800       0.00111716       0.00097403      -0.00165216
Au       7.21419976       5.82692191      12.58090486  T        3      -0.00044615      -0.00043676      -0.00001796      -0.00001432       0.00000969       0.00000466      -0.35748800      -0.00111716       0.00097403      -0.00165216
Au      10.09748484       5.82978559      12.57331190  T        3      -0.00045127      -0.00045127      -0.00003080      -0.00000000      -0.00000000       0.00000000      -0.35513374       0.00000000      -0.00000000      -0.00390392
Au      -0.00672619       1.66953639      15.09953981  T        2      -0.00043026      -0.00044259      -0.00007491       0.00001324      -0.00002292      -0.00001068      -0.35689635       0.00673989      -0.00389128      -0.00209951
Au       2.89172186       1.66953639      15.09953981  T        2      -0.00043026      -0.00044259      -0.00007491       0.00001324       0.00002292       0.00001068      -0.35689635      -0.00673989      -0.00389128      -0.00209951
Au       5.76999133       1.66523372      15.20651429  T        2      -0.00042704      -0.00042548       0.00006516      -0.00000308       0.00000000      -0.00000000      -0.36173529       0.00000000      -0.00108479       0.02286114
Au       1.44249783       4.17228248      15.13625955  T        2      -0.00043452      -0.00047312      -0.00001865       0.00003954      -0.00000000      -0.00000000      -0.35365756      -0.00000000      -0.00172475      -0.00156733
Au       4.32713037       4.16434222      15.20651429  T        2      -0.00042587      -0.00042665       0.00006516       0.00000154      -0.00000266      -0.00000068      -0.36173529      -0.00093946       0.00054240       0.02286114
Au       7.21285230       4.16434222      15.20651429  T        2      -0.00042587      -0.00042665       0.00006516       0.00000154       0.00000266       0.00000068      -0.36173529       0.00093946       0.00054240       0.02286114
Au       2.87793763       6.65853714      15.13625955  T        2      -0.00046347      -0.00044417      -0.00001865      -0.00001977      -0.00003425      -0.00001672      -0.35365756       0.00149367       0.00086237      -0.00156733
Au       5.76999133       6.65484536      15.09953981  T        2      -0.00044876      -0.00042409      -0.00007491      -0.00002647       0.00000000       0.00000000      -0.35689635       0.00000000       0.00778255      -0.00209951
Au       8.66204504       6.65853714      15.13625955  T        2      -0.00046347      -0.00044417      -0.00001865      -0.00001977       0.00003425       0.00001672      -0.35365756      -0.00149367       0.00086237      -0.00156733
Au      -0.00251942      -0.00145459      17.59672716  T        1      -0.00047785      -0.00047295      -0.00009129       0.00000242       0.00000419      -0.00000424      -0.26870856      -0.00139609      -0.00080603       0.04595975
Au       2.88751509      -0.00145459      17.59672716  T        1      -0.00047785      -0.00047295      -0.00009129       0.00000242      -0.00000419       0.00000424      -0.26870856       0.00139609      -0.00080603       0.04595975
Au       5.76999133      -0.00123970      17.81569960  T        1      -0.00043840      -0.00047285       0.00007349       0.00000791      -0.00000000      -0.00000000      -0.24600856      -0.00000000      -0.00040628      -0.03309453
Au       1.44249783       2.50138872      17.59672716  T        1      -0.00047050      -0.00048029      -0.00009129      -0.00000484       0.00000000       0.00000000      -0.26870856      -0.00000000       0.00161206       0.04595975
Au       4.31968779       2.49397291      17.84123298  T        1      -0.00041984      -0.00044436       0.00008573      -0.00001504      -0.00002605       0.00002124      -0.25276143       0.00264253       0.00152567      -0.02144330
Au       7.22029488       2.49397291      17.84123298  T        1      -0.00041984      -0.00044436       0.00008573      -0.00001504       0.00002605      -0.00002124      -0.25276143      -0.00264253       0.00152567      -0.02144330
Au       2.88392205       4.99757893      17.81569960  T        1      -0.00046424      -0.00044702       0.00007349      -0.00000395       0.00000685       0.00001491      -0.24600856      -0.00035185       0.00020314      -0.03309453
Au       5.76999133       5.00597234      17.84123298  T        1      -0.00045662      -0.00040758       0.00008573       0.00003008      -0.00000000      -0.00000000      -0.25276143       0.00000000      -0.00305133      -0.02144330
Au       8.65606061       4.99757893      17.81569960  T        1      -0.00046424      -0.00044702       0.00007349      -0.00000395      -0.00000685      -0.00001491      -0.24600856       0.00035185       0.00020314      -0.03309453
Hg       1.44249783       0.83282651      20.20137686  T        0       0.00006360       0.00006360       0.00004467      -0.00000000       0.00000000      -0.00000000      -0.14049293      -0.00000000       0.00000000      -0.03872641
