37
Lattice="8.654987001723343 0.0 0.0 4.327493500861672 7.495438612916525 0.0 0.0 0.0 27.066767294881018" Properties=species:S:1:pos:R:3:move_mask:L:1:tags:I:1:stresses:R:6:energies:R:1:forces:R:3 stress="-0.016407473152968362 -1.4393627901965222e-17 -1.6146166986004419e-18 -1.4393627901965222e-17 -0.01640747315296841 8.959308442107943e-18 -1.6146166986004419e-18 8.959308442107943e-18 -0.00034396446226546954" energy=-11.053379079639802 free_energy=-11.053379079639802 pbc="T T F"
Au       0.00000000       0.00000000      10.00000000  F        4      -0.00048041      -0.00047849       0.00001254      -0.00000307      -0.00000532      -0.00000166      -0.24114065      -0.00761930      -0.00439901      -0.01039536
Au       2.88499567       0.00000000      10.00000000  F        4      -0.00048332      -0.00047837       0.00000782      -0.00000617       0.00000000       0.00000000      -0.24099826       0.00000000      -0.00868881      -0.01753100
Au       5.76999133       0.00000000      10.00000000  F        4      -0.00048041      -0.00047849       0.00001254      -0.00000307       0.00000532       0.00000166      -0.24114065       0.00761930      -0.00439901      -0.01039536
Au       1.44249783       2.49847954      10.00000000  F        4      -0.00047961      -0.00048208       0.00000782       0.00000309      -0.00000535      -0.00000214      -0.24099826      -0.00752473       0.00434440      -0.01753100
Au       4.32749350       2.49847954      10.00000000  F        4      -0.00047961      -0.00048208       0.00000782       0.00000309       0.00000535       0.00000214      -0.24099826       0.00752473       0.00434440      -0.01753100
Au       7.21248917       2.49847954      10.00000000  F        4      -0.00047581      -0.00047685       0.00002520      -0.00000019      -0.00000000      -0.00000000      -0.24213930       0.00000000      -0.00036989       0.00764278
Au       2.88499567       4.99695908      10.00000000  F        4      -0.00047753      -0.00048137       0.00001254       0.00000614       0.00000000       0.00000000      -0.24114065       0.00000000       0.00879801      -0.01039536
Au       5.76999133       4.99695908      10.00000000  F        4      -0.00047659      -0.00047607       0.00002520       0.00000010      -0.00000017       0.00000045      -0.24213930      -0.00032033       0.00018494       0.00764278
Au       8.65498700       4.99695908      10.00000000  F        4      -0.00047659      -0.00047607       0.00002520       0.00000010       0.00000017      -0.00000045      -0.24213930       0.00032033       0.00018494       0.00764278
Au       1.43938037       0.83102664      12.55359082  T        3      -0.00044801      -0.00044076      -0.00006285      -0.00000643      -0.00001113      -0.00000628      -0.35659916       0.00468379       0.00270419      -0.00576973
Au       4.33061097       0.83102664      12.55359082  T        3      -0.00044801      -0.00044076      -0.00006285      -0.00000643       0.00001113       0.00000628      -0.35659916      -0.00468379       0.00270419      -0.00576973
Au       7.21248917       0.82970623      12.58293834  T        3      -0.00045449      -0.00044242      -0.00001939      -0.00001655      -0.00000000       0.00000000      -0.35699067      -0.00000000       0.00245329      -0.00335477
Au       2.88499567       3.33490579      12.55359082  T        3      -0.00043713      -0.00045163      -0.00006285       0.00001285       0.00000000       0.00000000      -0.35659916       0.00000000      -0.00540837      -0.00576973
Au       5.77186151       3.33238580      12.58641022  T        3      -0.00043847      -0.00043905      -0.00001827       0.00000396       0.00000686       0.00000051      -0.35930965      -0.00163948      -0.00094656      -0.00879783
Au       8.65311683       3.33238580      12.58641022  T        3      -0.00043847      -0.00043905      -0.00001827       0.00000396      -0.00000686      -0.00000051      -0.35930965       0.00163948      -0.00094656      -0.00879783
Au       4.32479126       5.83134573      12.58293834  T        3      -0.00044544      -0.00045147      -0.00001939       0.00000828      -0.00001434      -0.00000523      -0.35699067       0.00212461      -0.00122665      -0.00335477
Au       7.21248917       5.82762609      12.58641022  T        3      -0.00043935      -0.00043817      -0.00001827      -0.00000792       0.00000000      -0.00000000      -0.35930965       0.00000000       0.00189311      -0.00879783
Au      10.10018708       5.83134573      12.58293834  T        3      -0.00044544      -0.00045147      -0.00001939       0.00000828       0.00001434       0.00000523      -0.35699067      -0.00212461      -0.00122665      -0.00335477
Au      -0.00310556       1.66205825      15.12099378  T        2      -0.00045044      -0.00043640      -0.00003396      -0.00001649      -0.00002332      -0.00001010      -0.35760624      -0.00728194      -0.00721902       0.00972915
Au       2.88499567       1.66565303      15.04908360  T        2      -0.00044705      -0.00044705      -0.00010255      -0.00000000       0.00000000       0.00000000      -0.35719476      -0.00000000      -0.00000000       0.03049052
Au       5.77309689       1.66205825      15.12099378  T        2      -0.00045044      -0.00043640      -0.00003396      -0.00001649       0.00002332       0.00001010      -0.35760624       0.00728194      -0.00721902       0.00972915
Au       1.44405822       4.16861944      15.12099378  T        2      -0.00043117      -0.00045567      -0.00003396       0.00002844       0.00000262       0.00000103      -0.35760624       0.00261089       0.00991585       0.00972915
Au       4.32593311       4.16861944      15.12099378  T        2      -0.00043117      -0.00045567      -0.00003396       0.00002844      -0.00000262      -0.00000103      -0.35760624      -0.00261089       0.00991585       0.00972915
Au       7.21248917       4.16413256      15.18476906  T        2      -0.00042313      -0.00042313       0.00000693      -0.00000000      -0.00000000      -0.00000000      -0.36340503      -0.00000000      -0.00000000      -0.01272672
Au       2.88499567       6.66261210      15.19853637  T        2      -0.00044412      -0.00044412       0.00002922      -0.00000000      -0.00000000      -0.00000000      -0.35830278       0.00000000      -0.00000000      -0.00866979
Au       5.76532539       6.66172000      15.12099378  T        2      -0.00044865      -0.00043819      -0.00003396      -0.00001195      -0.00002594      -0.00001113      -0.35760624      -0.00989282      -0.00269683       0.00972915
Au       8.65965295       6.66172000      15.12099378  T        2      -0.00044865      -0.00043819      -0.00003396      -0.00001195       0.00002594       0.00001113      -0.35760624       0.00989282      -0.00269683       0.00972915
Au       0.00409478       0.00236412      17.78172240  T        1      -0.00044297      -0.00045853       0.00006637       0.00001129       0.00001955       0.00001347      -0.25146997       0.01338750       0.00772928      -0.00368891
Au       2.88499567      -0.00535714      17.59905745  T        1      -0.00048517      -0.00047488      -0.00008647      -0.00001823      -0.00000000       0.00000000      -0.26781534      -0.00000000       0.02801784       0.02030230
Au       5.76589656       0.00236412      17.78172240  T        1      -0.00044297      -0.00045853       0.00006637       0.00001129      -0.00001955      -0.00001347      -0.25146997      -0.01338750       0.00772928      -0.00368891
Au       1.43785842       2.50115811      17.59905745  T        1      -0.00047745      -0.00048260      -0.00008647       0.00000912      -0.00001579      -0.00000445      -0.26781534       0.02426416      -0.01400892       0.02030230
Au       4.33213292       2.50115811      17.59905745  T        1      -0.00047745      -0.00048260      -0.00008647       0.00000912       0.00001579       0.00000445      -0.26781534      -0.02426416      -0.01400892       0.02030230
Au       7.21248917       2.49600246      17.75713467  T        1      -0.00045671      -0.00046980       0.00004905       0.00001270       0.00000000      -0.00000000      -0.24700230      -0.00000000       0.00064723      -0.00712095
Au       2.88499567       4.99223083      17.78172240  T        1      -0.00046630      -0.00043519       0.00006637      -0.00002258       0.00000000      -0.00000000      -0.25146997      -0.00000000      -0.01545856      -0.00368891
Au       5.76784613       4.99819761      17.75713467  T        1      -0.00046653      -0.00045999       0.00004905      -0.00000635       0.00001100       0.00000567      -0.24700230       0.00056051      -0.00032361      -0.00712095
Au       8.65713221       4.99819761      17.75713467  T        1      -0.00046653      -0.00045999       0.00004905      -0.00000635      -0.00001100      -0.00000567      -0.24700230      -0.00056051      -0.00032361      -0.00712095
Hg       2.88499567       1.66565303      20.15421469  T        0       0.00005411       0.00005411       0.00000422       0.00000000       0.00000000      -0.00000000      -0.13844314      -0.00000000      -0.00000000       0.01867149
