37
Lattice="8.654987001723343 0.0 0.0 4.327493500861672 7.495438612916525 0.0 0.0 0.0 27.066767294881018" Properties=species:S:1:pos:R:3:move_mask:L:1:tags:I:1:stresses:R:6:energies:R:1:forces:R:3 stress="-0.016420495525263465 2.6548753469524707e-18 2.366431540425852e-18 2.6548753469524707e-18 -0.016420495525263524 9.99025826077523e-18 2.366431540425852e-18 9.99025826077523e-18 -0.0003020374875477955" energy=-10.989793443855508 free_energy=-10.989793443855508 pbc="T T F"
Au       0.00000000       0.00000000      10.00000000  F        4      -0.00048610      -0.00048610      -0.00001240      -0.00000000       0.00000000      -0.00000000      -0.23944622      -0.00000000       0.00000000      -0.04664460
Au       2.88499567       0.00000000      10.00000000  F        4      -0.00047817      -0.00047897       0.00001771      -0.00000135       0.00001213       0.00000426      -0.24126632       0.01693455      -0.00220962      -0.00357108
Au       5.76999133       0.00000000      10.00000000  F        4      -0.00047817      -0.00047897       0.00001771      -0.00000135      -0.00001213      -0.00000426      -0.24126632      -0.01693455      -0.00220962      -0.00357108
Au       1.44249783       2.49847954      10.00000000  F        4      -0.00047508      -0.00048206       0.00001771       0.00001118       0.00000490       0.00000247      -0.24126632       0.00655369       0.01577056      -0.00357108
Au       4.32749350       2.49847954      10.00000000  F        4      -0.00047074      -0.00047074       0.00004894       0.00000000      -0.00000000      -0.00000000      -0.24338307      -0.00000000      -0.00000000       0.04087103
Au       7.21248917       2.49847954      10.00000000  F        4      -0.00047508      -0.00048206       0.00001771       0.00001118      -0.00000490      -0.00000247      -0.24126632      -0.00655369       0.01577056      -0.00357108
Au       2.88499567       4.99695908      10.00000000  F        4      -0.00048246      -0.00047468       0.00001771      -0.00000983      -0.00000724      -0.00000179      -0.24126632      -0.01038086      -0.01356094      -0.00357108
Au       5.76999133       4.99695908      10.00000000  F        4      -0.00048246      -0.00047468       0.00001771      -0.00000983       0.00000724       0.00000179      -0.24126632       0.01038086      -0.01356094      -0.00357108
Au       8.65498700       4.99695908      10.00000000  F        4      -0.00047890      -0.00047890       0.00001643      -0.00000000      -0.00000000       0.00000000      -0.24099086      -0.00000000      -0.00000000      -0.00509447
Au       1.44515082       0.83435822      12.54225925  T        3      -0.00043750      -0.00044054      -0.00005229       0.00000210       0.00000364       0.00000263      -0.35777322      -0.00367809      -0.00212355       0.03456385
Au       4.32749350       0.83296963      12.61545554  T        3      -0.00044069      -0.00043992      -0.00000991      -0.00000282      -0.00000000      -0.00000000      -0.35902594      -0.00000000      -0.00010493      -0.04762231
Au       7.20983618       0.83435822      12.54225925  T        3      -0.00043750      -0.00044054      -0.00005229       0.00000210      -0.00000364      -0.00000263      -0.35777322       0.00367809      -0.00212355       0.03456385
Au       2.88511961       3.33123449      12.61545554  T        3      -0.00044011      -0.00044049      -0.00000991       0.00000141      -0.00000245      -0.00000033      -0.35902594      -0.00009087       0.00005247      -0.04762231
Au       5.76986739       3.33123449      12.61545554  T        3      -0.00044011      -0.00044049      -0.00000991       0.00000141       0.00000245       0.00000033      -0.35902594       0.00009087       0.00005247      -0.04762231
Au       8.65498700       3.33498104      12.57824134  T        3      -0.00044086      -0.00045571      -0.00003505       0.00001154      -0.00000000      -0.00000000      -0.35656885      -0.00000000      -0.00855988      -0.01944190
Au       4.32749350       5.82672218      12.54225925  T        3      -0.00044206      -0.00043598      -0.00005229      -0.00000421       0.00000000      -0.00000000      -0.35777322      -0.00000000       0.00424709       0.03456385
Au       7.21567180       5.82794809      12.57824134  T        3      -0.00045200      -0.00044457      -0.00003505      -0.00000577       0.00000999       0.00000643      -0.35656885      -0.00741307       0.00427994      -0.01944190
Au      10.09430220       5.82794809      12.57824134  T        3      -0.00045200      -0.00044457      -0.00003505      -0.00000577      -0.00000999      -0.00000643      -0.35656885       0.00741307       0.00427994      -0.01944190
Au      -0.00000000       1.66907052      15.08442102  T        2      -0.00043834      -0.00045658      -0.00005100       0.00003387       0.00000000      -0.00000000      -0.35723332      -0.00000000       0.01151930       0.00994634
Au       2.88155931       1.66366905      15.15821775  T        2      -0.00043119      -0.00043844      -0.00003063       0.00000004       0.00000007       0.00000628      -0.36019228       0.00218541       0.00126175      -0.00745490
Au       5.77342769       1.66366905      15.15821775  T        2      -0.00043119      -0.00043844      -0.00003063       0.00000004      -0.00000007      -0.00000628      -0.36019228      -0.00218541       0.00126175      -0.00745490
Au       1.44134655       4.16479726      15.14986294  T        2      -0.00044736      -0.00044618      -0.00002713      -0.00000479       0.00000829       0.00000103      -0.35765501       0.00282777      -0.00163261       0.01015915
Au       4.32749350       4.16810052      15.15821775  T        2      -0.00044207      -0.00042756      -0.00003063      -0.00000008      -0.00000000       0.00000000      -0.36019228       0.00000000      -0.00252349      -0.00745490
Au       7.21364045       4.16479726      15.14986294  T        2      -0.00044736      -0.00044618      -0.00002713      -0.00000479      -0.00000829      -0.00000103      -0.35765501      -0.00282777      -0.00163261       0.01015915
Au       2.88203603       6.66090335      15.08442102  T        2      -0.00045202      -0.00044290      -0.00005100      -0.00001694      -0.00002933      -0.00000790      -0.35723332      -0.00997600      -0.00575965       0.00994634
Au       5.77295097       6.66090335      15.08442102  T        2      -0.00045202      -0.00044290      -0.00005100      -0.00001694       0.00002933       0.00000790      -0.35723332       0.00997600      -0.00575965       0.00994634
Au       8.65498700       6.66128272      15.14986294  T        2      -0.00044559      -0.00044796      -0.00002713       0.00000958       0.00000000      -0.00000000      -0.35765501       0.00000000       0.00326523       0.01015915
Au       0.00000000       0.00000000      17.56418692  T        1      -0.00049251      -0.00049251      -0.00016774       0.00000000      -0.00000000      -0.00000000      -0.26287156      -0.00000000      -0.00000000      -0.03115865
Au       2.88039335      -0.00131654      17.72515785  T        1      -0.00044706      -0.00048204       0.00004447       0.00000775      -0.00001583       0.00000191      -0.25237005      -0.00091883       0.00003369       0.02002930
Au       5.77459365      -0.00131654      17.72515785  T        1      -0.00044706      -0.00048204       0.00004447       0.00000775       0.00001583      -0.00000191      -0.25237005       0.00091883       0.00003369       0.02002930
Au       1.43905652       2.49515208      17.72515785  T        1      -0.00047164      -0.00045746       0.00004447      -0.00001759      -0.00000121       0.00001610      -0.25237005      -0.00043024      -0.00081257       0.02002930
Au       4.32749350       2.49847954      17.71161665  T        1      -0.00046377      -0.00046377       0.00000240      -0.00000000       0.00000000       0.00000000      -0.24658834       0.00000000      -0.00000000       0.02695255
Au       7.21593048       2.49515208      17.72515785  T        1      -0.00047164      -0.00045746       0.00004447      -0.00001759       0.00000121      -0.00001610      -0.25237005       0.00043024      -0.00081257       0.02002930
Au       2.88615667       5.00160307      17.72515785  T        1      -0.00047495      -0.00045415       0.00004447       0.00000984       0.00001463       0.00001419      -0.25237005       0.00048859       0.00077889       0.02002930
Au       5.76883033       5.00160307      17.72515785  T        1      -0.00047495      -0.00045415       0.00004447       0.00000984      -0.00001463      -0.00001419      -0.25237005      -0.00048859       0.00077889       0.02002930
Au       8.65498700       4.99695908      17.71691752  T        1      -0.00047165      -0.00047165       0.00001107       0.00000000       0.00000000      -0.00000000      -0.24471992       0.00000000       0.00000000       0.01713530
Hg      -0.00000000      -0.00000000      20.54979241  T        0       0.00007188       0.00007188       0.00004416       0.00000000       0.00000000      -0.00000000      -0.10462935      -0.00000000      -0.00000000      -0.04126116
