37
Lattice="8.654987001723343 0.0 0.0 4.327493500861672 7.495438612916525 0.0 0.0 0.0 31.066767294881018" Properties=species:S:1:pos:R:3:move_mask:L:1:tags:I:1 pbc="T T F"
Au       0.00000000       0.00000000      12.00000000  F        4
Au       2.88499567       0.00000000      12.00000000  F        4
Au       5.76999133       0.00000000      12.00000000  F        4
Au       1.44249783       2.49847954      12.00000000  F        4
Au       4.32749350       2.49847954      12.00000000  F        4
Au       7.21248917       2.49847954      12.00000000  F        4
Au       2.88499567       4.99695908      12.00000000  F        4
Au       5.76999133       4.99695908      12.00000000  F        4
Au       8.65498700       4.99695908      12.00000000  F        4
Au       1.44249783       0.83282651      14.35558910  F        3
Au       4.32749350       0.83282651      14.35558910  F        3
Au       7.21248917       0.83282651      14.35558910  F        3
Au       2.88499567       3.33130605      14.35558910  F        3
Au       5.76999133       3.33130605      14.35558910  F        3
Au       8.65498700       3.33130605      14.35558910  F        3
Au       4.32749350       5.82978559      14.35558910  F        3
Au       7.21248917       5.82978559      14.35558910  F        3
Au      10.09748484       5.82978559      14.35558910  F        3
Au       0.00000054       1.66565045      16.90955967  T        2
Au       2.88499092       1.66565149      16.90955744  T        2
Au       5.76999324       1.66566236      16.90955908  T        2
Au       1.44249800       4.16412917      16.90955887  T        2
Au       4.32749446       4.16412805      16.90955918  T        2
Au       7.21249368       4.16411773      16.90956490  T        2
Au       2.88500311       6.66261202      16.90957547  T        2
Au       5.76998079       6.66261920      16.90957352  T        2
Au       8.65499568       6.66261404      16.90957345  T        2
Au      -0.00000727      -0.00000719      19.33248344  T        1
Au       2.88499969      -0.00000288      19.33248430  T        1
Au       5.76999210      -0.00000846      19.33248171  T        1
Au       1.44250408       2.49847757      19.33248202  T        1
Au       4.32748839       2.49847993      19.33248649  T        1
Au       7.21248748       2.49847170      19.33247592  T        1
Au       2.88499203       4.99696464      19.33249001  T        1
Au       5.76998467       4.99697236      19.33248426  T        1
Au       8.65498877       4.99696946      19.33248411  T        1
Hg       1.44249783       0.83282651      21.83249001  T        0
