37
Lattice="8.654987001723343 0.0 0.0 4.327493500861672 7.495438612916525 0.0 0.0 0.0 31.066767294881018" Properties=species:S:1:pos:R:3:tags:I:1 pbc="T T F"
Au       0.00000000       0.00000000      12.00000000        4
Au       2.88499567       0.00000000      12.00000000        4
Au       5.76999133       0.00000000      12.00000000        4
Au       1.44249783       2.49847954      12.00000000        4
Au       4.32749350       2.49847954      12.00000000        4
Au       7.21248917       2.49847954      12.00000000        4
Au       2.88499567       4.99695908      12.00000000        4
Au       5.76999133       4.99695908      12.00000000        4
Au       8.65498700       4.99695908      12.00000000        4
Au       1.44249783       0.83282651      14.35558910        3
Au       4.32749350       0.83282651      14.35558910        3
Au       7.21248917       0.83282651      14.35558910        3
Au       2.88499567       3.33130605      14.35558910        3
Au       5.76999133       3.33130605      14.35558910        3
Au       8.65498700       3.33130605      14.35558910        3
Au       4.32749350       5.82978559      14.35558910        3
Au       7.21248917       5.82978559      14.35558910        3
Au      10.09748484       5.82978559      14.35558910        3
Au      -0.00000038       1.66565239      16.94961797        2
Au       2.88499633       1.66565252      16.94961874        2
Au       5.76999109       1.66565151      16.94961804        2
Au       1.44249751       4.16413190      16.94962114        2
Au       4.32749250       4.16413155      16.94962062        2
Au       7.21248803       4.16413223      16.94962037        2
Au       2.88499575       6.66261187      16.94961813        2
Au       5.76999204       6.66261195      16.94961803        2
Au       8.65498596       6.66261153      16.94961857        2
Au      -0.00000061       0.00000123      19.31838178        1
Au       2.88499603       0.00000107      19.31838191        1
Au       5.76999290      -0.00000050      19.31838205        1
Au       1.44249779       2.49847862      19.31838124        1
Au       4.32749185       2.49847875      19.31838135        1
Au       7.21249008       2.49847733      19.31838423        1
Au       2.88499610       4.99696032      19.31838300        1
Au       5.76999127       4.99695958      19.31838510        1
Au       8.65498833       4.99695995      19.31838477        1
Hg       2.88499567       1.66565303      21.81838510        0
