37

Au      0.000000000000000      0.000000000000000     10.000000000000000
Au      2.884995667241114      0.000000000000000     10.000000000000000
Au      5.769991334482229      0.000000000000000     10.000000000000000
Au      1.442497833620557      2.498479537638842     10.000000000000000
Au      4.327493500861672      2.498479537638842     10.000000000000000
Au      7.212489168102786      2.498479537638842     10.000000000000000
Au      2.884995667241114      4.996959075277683     10.000000000000000
Au      5.769991334482229      4.996959075277683     10.000000000000000
Au      8.654987001723343      4.996959075277683     10.000000000000000
Au      1.442497833620557      0.833881560558350     12.607318821316936
Au      4.327073350347335      0.840635941757537     12.586447060358232
Au      7.212909318617110      0.840635941757534     12.586447060358232
Au      2.887372106740508      3.326744794793935     12.553933103849522
Au      5.769991334482229      3.325988157440823     12.581912832717251
Au      8.652610562223940      3.326744794793929     12.553933103849541
Au      4.327898004068993      5.833385320276276     12.572922009455993
Au      7.212084664895464      5.833385320276282     12.572922009455993
Au     10.097484835343900      5.831455612433315     12.543929100075466
Au      0.003500337826225      1.667808395077038     15.147152648529683
Au      2.881495329414888      1.667808395077039     15.147152648529683
Au      5.769991334482229      1.667065543142241     15.128329976770550
Au      1.442497833620553      4.161266152458220     15.072068875914134
Au      4.322156683566416      4.168206267571364     15.109505111346088
Au      7.217825985398044      4.168206267571364     15.109505111346103
Au      2.882119694735938      6.659149624101185     15.116952019090180
Au      5.769991334482229      6.659961866185633     15.130075241256174
Au      8.657862974228530      6.659149624101185     15.116952019090174
Au     -0.004723691962173     -0.006423149108589     17.698048044562654
Au      2.889719359203288     -0.006423149108590     17.698048044562654
Au      5.769991334482229      0.005594761098673     17.738161058124028
Au      1.442497833620557      2.492278534061962     17.773182593286762
Au      4.324669968914441      2.503440470121712     17.690809164304781
Au      7.215312700050015      2.503440470121713     17.690809164304781
Au      2.894403754822360      4.994344084868865     17.629811379041318
Au      5.769991334482229      4.994752711802187     17.685648233769971
Au      8.645578914142087      4.994344084868869     17.629811379041318
Hg      5.769991334482229     -2.499088496427646     20.316865582235948
