37

Au      0.000000000000000      0.000000000000000     10.000000000000000
Au      2.884995667241114      0.000000000000000     10.000000000000000
Au      5.769991334482229      0.000000000000000     10.000000000000000
Au      1.442497833620557      2.498479537638842     10.000000000000000
Au      4.327493500861672      2.498479537638842     10.000000000000000
Au      7.212489168102786      2.498479537638842     10.000000000000000
Au      2.884995667241114      4.996959075277683     10.000000000000000
Au      5.769991334482229      4.996959075277683     10.000000000000000
Au      8.654987001723343      4.996959075277683     10.000000000000000
Au      1.442497833620553      0.834496537155635     12.543929100075452
Au      4.327898004068995      0.836426244998608     12.572922009455995
Au      7.212084664895460      0.836426244998604     12.572922009455995
Au      2.885415817755441      3.339115479396381     12.586447060358221
Au      5.769991334482229      3.332361098197190     12.607318821316962
Au      8.654566851209015      3.339115479396383     12.586447060358211
Au      4.325117061362263      5.825224332432777     12.553933103849538
Au      7.214865607602184      5.825224332432772     12.553933103849520
Au     10.097484835343900      5.824467695079667     12.581912832717238
Au      0.002875972505171      1.662190548823493     15.116952019090141
Au      2.882119694735940      1.662190548823494     15.116952019090155
Au      5.769991334482229      1.663002790907929     15.130075241256252
Au      1.442497833620557      4.165545080781073     15.128329976770498
Au      4.330993838687913      4.166287932715879     15.147152648529689
Au      7.208988830276551      4.166287932715877     15.147152648529673
Au      2.890332484536379      6.666685805210196     15.109505111346104
Au      5.769991334482229      6.659745690097062     15.072068875914120
Au      8.649650184428097      6.666685805210196     15.109505111346104
Au     -0.009408087581256     -0.002614990408814     17.629811379041321
Au      2.894403754822369     -0.002614990408815     17.629811379041321
Au      5.769991334482229     -0.002206363475505     17.685648233770046
Au      1.442497833620557      2.504074298737521     17.738161058123957
Au      4.322769808899495      2.492056388530256     17.698048044562682
Au      7.217212860064962      2.492056388530252     17.698048044562682
Au      2.887819199188341      5.001920007760554     17.690809164304724
Au      5.769991334482229      4.990758071700810     17.773182593286855
Au      8.652163469776095      5.001920007760553     17.690809164304724
Hg      1.442497833620557     -0.000608958788810     20.316865582235938
