37

Au      0.000000000000000      0.000000000000000     10.000000000000000
Au      2.884995667241114      0.000000000000000     10.000000000000000
Au      5.769991334482229      0.000000000000000     10.000000000000000
Au      1.442497833620557      2.498479537638842     10.000000000000000
Au      4.327493500861672      2.498479537638842     10.000000000000000
Au      7.212489168102786      2.498479537638842     10.000000000000000
Au      2.884995667241114      4.996959075277683     10.000000000000000
Au      5.769991334482229      4.996959075277683     10.000000000000000
Au      8.654987001723343      4.996959075277683     10.000000000000000
Au      1.443944117357212      0.831991500241603     12.543929100075468
Au      4.334466740204848      0.829285658959469     12.586447060358239
Au      7.207350785311182      0.833049083264840     12.553933103849538
Au      2.888315378595333      3.329856494012414     12.572922009456018
Au      5.770905032862906      3.330778526179087     12.607318821316962
Au      8.652225058431142      3.335644734857756     12.553933103849538
Au      4.330408709008561      5.827635411544342     12.572922009456018
Au      7.219042256931631      5.825517012199517     12.586447060358239
Au     10.092879405132757      5.832444534196115     12.581912832717245
Au     -0.002482384114232      1.667086230229150     15.072068875914113
Au      2.880559088579536      1.664893597977019     15.116952019090160
Au      5.773608108556465      1.667606721579654     15.147152648529667
Au      1.443357356851871      4.157473890958368     15.109505111346119
Au      4.325198330731814      4.165457679823719     15.130075241256245
Au      7.212605604350789      4.160023496259804     15.147152648529659
Au      2.891192007767678      6.665197067303304     15.109505111346147
Au      5.768430728325828      6.666834003754831     15.116952019090160
Au      8.656210278237676      6.661905841345401     15.128329976770539
Au     -0.006968691915302     -0.006840147641973     17.629811379041310
Au      2.889840872480669     -0.002797380549344     17.738161058123985
Au      5.775699394012476     -0.000035215846741     17.690809164304788
Au      1.444937229286494      2.507934675689627     17.629811379041310
Au      4.319569044580259      2.497600274954229     17.698048044562658
Au      7.207118941476256      2.501580039427266     17.773182593286787
Au      2.883084900421350      4.998062257015428     17.685648233770102
Au      5.766790570162978      5.004261487070866     17.698048044562658
Au      8.657871529306346      4.992033358641541     17.690809164304756
Hg      0.720721543029314      1.249544248213823     20.316865582235927
