37

Au      0.000000000000000      0.000000000000000     10.000000000000000
Au      2.884995667241114      0.000000000000000     10.000000000000000
Au      5.769991334482229      0.000000000000000     10.000000000000000
Au      1.442497833620557      2.498479537638842     10.000000000000000
Au      4.327493500861672      2.498479537638842     10.000000000000000
Au      7.212489168102786      2.498479537638842     10.000000000000000
Au      2.884995667241114      4.996959075277683     10.000000000000000
Au      5.769991334482229      4.996959075277683     10.000000000000000
Au      8.654987001723343      4.996959075277683     10.000000000000000
Au      1.442077683106234      0.840635941757536     12.586447060358234
Au      4.327913651375992      0.840635941757539     12.586447060358241
Au      7.212489168102787      0.833881560558350     12.607318821316975
Au      2.884995667241114      3.325988157440822     12.581912832717240
Au      5.767614894982833      3.326744794793930     12.553933103849543
Au      8.657363441222747      3.326744794793931     12.553933103849539
Au      4.327088997654342      5.833385320276292     12.572922009455999
Au      7.212489168102786      5.831455612433318     12.543929100075482
Au     10.097889338551219      5.833385320276288     12.572922009455999
Au     -0.003500337826233      1.667808395077034     15.147152648529660
Au      2.884995667241114      1.667065543142226     15.128329976770521
Au      5.773491672308460      1.667808395077032     15.147152648529683
Au      1.437161016325302      4.168206267571358     15.109505111346095
Au      4.332830318156936      4.168206267571358     15.109505111346095
Au      7.212489168102787      4.161266152458223     15.072068875914121
Au      2.884995667241114      6.659961866185607     15.130075241256250
Au      5.772867306987411      6.659149624101180     15.116952019090185
Au      8.652111029218167      6.659149624101186     15.116952019090201
Au      0.004723691962180     -0.006423149108587     17.698048044562675
Au      2.884995667241114      0.005594761098671     17.738161058124156
Au      5.765267642520055     -0.006423149108585     17.698048044562736
Au      1.439674301673322      2.503440470121713     17.690809164304682
Au      4.330317032808902      2.503440470121703     17.690809164304682
Au      7.212489168102786      2.492278534061966     17.773182593286819
Au      2.884995667241116      4.994752711802173     17.685648233770070
Au      5.760583246900981      4.994344084868863     17.629811379041346
Au      8.664395089304614      4.994344084868860     17.629811379041346
Hg      7.212489168102787      4.996350116488865     20.316865582235955
