37

Au      0.000000000000000      0.000000000000000     10.000000000000000
Au      2.884995667241114      0.000000000000000     10.000000000000000
Au      5.769991334482229      0.000000000000000     10.000000000000000
Au      1.442497833620557      2.498479537638842     10.000000000000000
Au      4.327493500861672      2.498479537638842     10.000000000000000
Au      7.212489168102786      2.498479537638842     10.000000000000000
Au      2.884995667241114      4.996959075277683     10.000000000000000
Au      5.769991334482229      4.996959075277683     10.000000000000000
Au      8.654987001723343      4.996959075277683     10.000000000000000
Au      1.439735890328349      0.837165197218915     12.553933103849543
Au      4.330813212215888      0.831376956373567     12.572922009455981
Au      7.213402866483454      0.832298988540249     12.607318821317000
Au      2.880390237029956      3.333964996557273     12.581912832717260
Au      5.772906542629110      3.329155873905504     12.572922009456025
Au      8.661540090552187      3.327037474560673     12.586447060358225
Au      4.322355118070060      5.830008158542529     12.553933103849550
Au      7.213935451839449      5.828950575519286     12.543929100075474
Au     10.104458074687059      5.826244734237143     12.586447060358255
Au      0.000116436248003      1.661543958620982     15.147152648529715
Au      2.885855190472413      1.658994353319533     15.109505111346117
Au      5.767696164352367      1.666978142184875     15.130075241256284
Au      1.443721110134881      4.163426303706566     15.128329976770569
Au      4.333689841388228      4.166717529664463     15.109505111346120
Au      7.210928561946374      4.168354466115998     15.116952019090148
Au      2.888612441315347      6.664565796857350     15.147152648529730
Au      5.767508950367981      6.664045305506847     15.072068875914081
Au      8.650550423061754      6.661852673254708     15.116952019090171
Au     -0.005370226626535      0.003100501788423     17.773182593286823
Au      2.887435062907044      0.009455138050778     17.629811379041243
Au      5.762066878200811     -0.000879262684621     17.698048044562711
Au      1.445382361203564      2.493553821002688     17.690809164304817
Au      4.325582734041899      2.499582719376583     17.685648233770095
Au      7.209288403783531      2.505781949432016     17.698048044562711
Au      2.890703726771350      4.996923859430925     17.690809164304802
Au      5.763022642566913      4.990118927635690     17.629811379041243
Au      8.659832206962895      4.994161694728330     17.738161058124113
Hg      2.163219376649847     -1.248935289425018     20.316865582235856
