37

Au      0.000000000000000      0.000000000000000     10.000000000000000
Au      2.884995667241114      0.000000000000000     10.000000000000000
Au      5.769991334482229      0.000000000000000     10.000000000000000
Au      1.442497833620557      2.498479537638842     10.000000000000000
Au      4.327493500861672      2.498479537638842     10.000000000000000
Au      7.212489168102786      2.498479537638842     10.000000000000000
Au      2.884995667241114      4.996959075277683     10.000000000000000
Au      5.769991334482229      4.996959075277683     10.000000000000000
Au      8.654987001723343      4.996959075277683     10.000000000000000
Au      1.442917984134882      0.840635941757550     12.586447060358237
Au      4.327493500861672      0.833881560558360     12.607318821316987
Au      7.212069017588470      0.840635941757550     12.586447060358260
Au      2.882619227741714      3.326744794793938     12.553933103849534
Au      5.772367773981634      3.326744794793938     12.553933103849539
Au      8.654987001723343      3.325988157440832     12.581912832717254
Au      4.327493500861672      5.831455612433329     12.543929100075465
Au      7.212893671310099      5.833385320276296     12.572922009455993
Au     10.097080332136580      5.833385320276292     12.572922009455993
Au      0.000000000000000      1.667065543142252     15.128329976770603
Au      2.888496005067338      1.667808395077047     15.147152648529715
Au      5.766490996656008      1.667808395077047     15.147152648529751
Au      1.447834650915820      4.168206267571375     15.109505111346087
Au      4.327493500861672      4.161266152458229     15.072068875914095
Au      7.207152350807523      4.168206267571373     15.109505111346101
Au      2.887871639746282      6.659149624101197     15.116952019090180
Au      5.767115361977065      6.659149624101198     15.116952019090178
Au      8.654987001723343      6.659961866185630     15.130075241256236
Au      0.000000000000000      0.005594761098679     17.738161058123993
Au      2.880271975278938     -0.006423149108596     17.698048044562711
Au      5.774715026444401     -0.006423149108597     17.698048044562711
Au      1.445321365567795      2.503440470121715     17.690809164304895
Au      4.327493500861672      2.492278534061954     17.773182593286815
Au      7.209665636155545      2.503440470121720     17.690809164304895
Au      2.875587579659858      4.994344084868867     17.629811379041296
Au      5.779399422063481      4.994344084868867     17.629811379041296
Au      8.654987001723343      4.994752711802178     17.685648233769939
Hg      4.327493500861672      4.996350116488865     20.316865582235899
