37

Au      0.000000000000000      0.000000000000000     10.000000000000000
Au      2.884995667241114      0.000000000000000     10.000000000000000
Au      5.769991334482229      0.000000000000000     10.000000000000000
Au      1.442497833620557      2.498479537638842     10.000000000000000
Au      4.327493500861672      2.498479537638842     10.000000000000000
Au      7.212489168102786      2.498479537638842     10.000000000000000
Au      2.884995667241114      4.996959075277683     10.000000000000000
Au      5.769991334482229      4.996959075277683     10.000000000000000
Au      8.654987001723343      4.996959075277683     10.000000000000000
Au      1.445259776912773      0.837165197218917     12.553933103849543
Au      4.326579802481009      0.832298988540245     12.607318821316969
Au      7.209169456748586      0.831376956373570     12.572922009455967
Au      2.878442578412277      3.327037474560674     12.586447060358211
Au      5.767076126335342      3.329155873905509     12.572922009455992
Au      8.659592431934504      3.333964996557267     12.581912832717219
Au      4.326047217125030      5.828950575519291     12.543929100075458
Au      7.217627550894419      5.830008158542523     12.553933103849531
Au     10.090511596000740      5.826244734237156     12.586447060358235
Au     -0.000859523231297      1.658994353319530     15.109505111346056
Au      2.884879230993116      1.661543958620978     15.147152648529676
Au      5.772286504612092      1.666978142184870     15.130075241256181
Au      1.441274557106229      4.163426303706560     15.128329976770496
Au      4.329054107018090      4.168354466115987     15.116952019090153
Au      7.206292827576227      4.166717529664470     15.109505111346049
Au      2.889432245902704      6.661852673254705     15.116952019090149
Au      5.772473718596479      6.664045305506827     15.072068875914114
Au      8.651370227649110      6.664565796857338     15.147152648529698
Au     -0.002439395665932      0.009455138050802     17.629811379041278
Au      2.890365893867656      0.003100501788439     17.773182593286858
Au      5.777915790763645     -0.000879262684603     17.698048044562686
Au      1.439613306037547      2.493553821002701     17.690809164304749
Au      4.330694265180925      2.505781949432033     17.698048044562622
Au      7.214399934922552      2.499582719376584     17.685648233769953
Au      2.880150462001559      4.994161694728338     17.738161058124000
Au      5.776960026397545      4.990118927635692     17.629811379041314
Au      8.649278942193108      4.996923859430937     17.690809164304749
Hg      0.721776290591240     -1.248935289425013     20.316865582235902
