37

Au      0.000000000000000      0.000000000000000     10.000000000000000
Au      2.884995667241114      0.000000000000000     10.000000000000000
Au      5.769991334482229      0.000000000000000     10.000000000000000
Au      1.442497833620557      2.498479537638842     10.000000000000000
Au      4.327493500861672      2.498479537638842     10.000000000000000
Au      7.212489168102786      2.498479537638842     10.000000000000000
Au      2.884995667241114      4.996959075277683     10.000000000000000
Au      5.769991334482229      4.996959075277683     10.000000000000000
Au      8.654987001723343      4.996959075277683     10.000000000000000
Au      1.442497833620560      0.833881560558350     12.607318821317003
Au      4.327073350347349      0.840635941757543     12.586447060358237
Au      7.212909318617109      0.840635941757543     12.586447060358246
Au      2.887372106740517      3.326744794793937     12.553933103849545
Au      5.769991334482229      3.325988157440830     12.581912832717244
Au      8.652610562223940      3.326744794793937     12.553933103849529
Au      4.327898004068997      5.833385320276294     12.572922009456004
Au      7.212084664895460      5.833385320276291     12.572922009456004
Au     10.097484835343900      5.831455612433317     12.543929100075484
Au      0.003500337826218      1.667808395077033     15.147152648529699
Au      2.881495329414894      1.667808395077034     15.147152648529692
Au      5.769991334482229      1.667065543142234     15.128329976770592
Au      1.442497833620553      4.161266152458213     15.072068875914097
Au      4.322156683566419      4.168206267571359     15.109505111346103
Au      7.217825985398039      4.168206267571351     15.109505111346103
Au      2.882119694735935      6.659149624101189     15.116952019090187
Au      5.769991334482229      6.659961866185617     15.130075241256312
Au      8.657862974228518      6.659149624101193     15.116952019090187
Au     -0.004723691962180     -0.006423149108582     17.698048044562746
Au      2.889719359203294     -0.006423149108581     17.698048044562746
Au      5.769991334482229      0.005594761098687     17.738161058124113
Au      1.442497833620551      2.492278534061973     17.773182593286688
Au      4.324669968914437      2.503440470121724     17.690809164304802
Au      7.215312700050021      2.503440470121719     17.690809164304802
Au      2.894403754822362      4.994344084868883     17.629811379041264
Au      5.769991334482229      4.994752711802194     17.685648233770092
Au      8.645578914142108      4.994344084868873     17.629811379041264
Hg      1.442497833620557      4.996350116488865     20.316865582235877
