37

Au      0.000000000000000      0.000000000000000     10.000000000000000
Au      2.884995667241114      0.000000000000000     10.000000000000000
Au      5.769991334482229      0.000000000000000     10.000000000000000
Au      1.442497833620557      2.498479537638842     10.000000000000000
Au      4.327493500861672      2.498479537638842     10.000000000000000
Au      7.212489168102786      2.498479537638842     10.000000000000000
Au      2.884995667241114      4.996959075277683     10.000000000000000
Au      5.769991334482229      4.996959075277683     10.000000000000000
Au      8.654987001723343      4.996959075277683     10.000000000000000
Au      1.439582625473675      0.830676336266661     12.572922009456002
Au      4.332098931072823      0.835485458918424     12.581912832717247
Au      7.205936079273938      0.828557936921830     12.586447060358216
Au      2.890134050032730      3.331528620903677     12.553933103849534
Au      5.763018095139042      3.327765196598312     12.586447060358230
Au      8.653540717986695      3.330471037880441     12.543929100075472
Au      4.326579802481008      5.829258063817929     12.607318821316989
Au      7.209169456748580      5.828336031651254     12.572922009455990
Au     10.100246778636109      5.834124272496587     12.553933103849539
Au      0.001560606156417      1.669874928477146     15.116952019090158
Au      2.878799326714558      1.668237992025620     15.109505111346076
Au      5.768768057967905      1.664946766067711     15.128329976770539
Au      1.444980217734806      4.165565767867998     15.072068875914075
Au      4.323876726787447      4.166086259218513     15.147152648529699
Au      7.216925746764370      4.163373135615856     15.116952019090167
Au      2.884879230993111      6.658503033898654     15.147152648529739
Au      5.772286504612081      6.663937217462548     15.130075241256266
Au      8.654127478492041      6.655953428597208     15.109505111346079
Au      0.003200764319242      0.007302411793189     17.698048044562761
Au      2.886906434060876      0.001103181737743     17.685648233770038
Au      5.767106806899211     -0.004925716636147     17.690809164304778
Au      1.449466525535865      2.491639389996857     17.629811379041271
Au      4.321785441331419      2.498444321792094     17.690809164304749
Au      7.207643962863221      2.495682157089494     17.738161058124025
Au      2.890365893867643      5.000059577066112     17.773182593286830
Au      5.777915790763642      4.996079812593068     17.698048044562725
Au      8.652547606057414      5.006414213328470     17.629811379041271
Hg      0.721776290591244      3.748023785852671     20.316865582235859
