37

Au      0.000000000000000      0.000000000000000     10.000000000000000
Au      2.884995667241114      0.000000000000000     10.000000000000000
Au      5.769991334482229      0.000000000000000     10.000000000000000
Au      1.442497833620557      2.498479537638842     10.000000000000000
Au      4.327493500861672      2.498479537638842     10.000000000000000
Au      7.212489168102786      2.498479537638842     10.000000000000000
Au      2.884995667241114      4.996959075277683     10.000000000000000
Au      5.769991334482229      4.996959075277683     10.000000000000000
Au      8.654987001723343      4.996959075277683     10.000000000000000
Au      1.442497833620562      0.827508619801980     12.581912832717236
Au      4.325117061362269      0.828265257155088     12.553933103849545
Au      7.214865607602195      0.828265257155090     12.553933103849545
Au      2.884591164033796      3.334905782637447     12.572922009456006
Au      5.769991334482229      3.332976074794482     12.543929100075479
Au      8.655391504930673      3.334905782637442     12.572922009456022
Au      4.327073350347352      5.837595017035222     12.586447060358232
Au      7.212909318617114      5.837595017035222     12.586447060358234
Au     10.097484835343900      5.830840635836021     12.607318821316992
Au     -0.005336817295260      1.669726729932517     15.109505111346104
Au      2.890332484536379      1.669726729932513     15.109505111346095
Au      5.769991334482229      1.662786614819374     15.072068875914100
Au      1.442497833620553      4.161482328546774     15.130075241256236
Au      4.330369473366860      4.160670086462353     15.116952019090187
Au      7.209613195597611      4.160670086462348     15.116952019090172
Au      2.881495329414888      6.664767470354724     15.147152648529699
Au      5.769991334482229      6.664024618419913     15.128329976770575
Au      8.658487339549573      6.664767470354722     15.147152648529726
Au     -0.002823531947231      0.004960932482876     17.690809164304834
Au      2.887819199188349      0.004960932482880     17.690809164304834
Au      5.769991334482229     -0.006201003576877     17.773182593286858
Au      1.442497833620561      2.496273174163353     17.685648233770017
Au      4.318085413280425      2.495864547230027     17.629811379041289
Au      7.221897255684036      2.495864547230022     17.629811379041289
Au      2.889719359203292      4.990535926169104     17.698048044562686
Au      5.769991334482226      5.002553836376356     17.738161058124138
Au      8.650263309761169      4.990535926169089     17.698048044562686
Hg      5.769991334482229      2.497870578850037     20.316865582235863
