37

Au      0.000000000000000      0.000000000000000     10.000000000000000
Au      2.884995667241114      0.000000000000000     10.000000000000000
Au      5.769991334482229      0.000000000000000     10.000000000000000
Au      1.442497833620557      2.498479537638842     10.000000000000000
Au      4.327493500861672      2.498479537638842     10.000000000000000
Au      7.212489168102786      2.498479537638842     10.000000000000000
Au      2.884995667241114      4.996959075277683     10.000000000000000
Au      5.769991334482229      4.996959075277683     10.000000000000000
Au      8.654987001723343      4.996959075277683     10.000000000000000
Au      1.445413041767445      0.830676336266658     12.572922009456006
Au      4.334046589690527      0.828557936921822     12.586447060358232
Au      7.207883737891638      0.835485458918423     12.581912832717236
Au      2.886441950977763      3.330471037880438     12.543929100075475
Au      5.776964573825398      3.327765196598300     12.586447060358232
Au      8.649848618931729      3.331528620903670     12.553933103849536
Au      4.330813212215885      5.828336031651249     12.572922009456001
Au      7.213402866483455      5.829258063817918     12.607318821316969
Au     10.094722892051667      5.834124272496594     12.553933103849536
Au      0.006196340526548      1.668237992025621     15.109505111346103
Au      2.883435061084701      1.669874928477153     15.116952019090165
Au      5.771214610996561      1.664946766067717     15.128329976770521
Au      1.440015449506308      4.165565767868000     15.072068875914091
Au      4.323056922200079      4.163373135615864     15.116952019090165
Au      7.216105942177008      4.166086259218499     15.147152648529680
Au      2.885855190472413      6.655953428597215     15.109505111346099
Au      5.767696164352365      6.663937217462551     15.130075241256241
Au      8.655103437971345      6.658503033898661     15.147152648529687
Au     -0.001910766819753      0.001103181737748     17.685648233770024
Au      2.881794902921884      0.007302411793188     17.698048044562732
Au      5.772875862065246     -0.004925716636138     17.690809164304806
Au      1.435529141705266      2.491639389996866     17.629811379041289
Au      4.332338706101241      2.495682157089508     17.738161058124007
Au      7.218197227633037      2.498444321792104     17.690809164304852
Au      2.887435062907060      5.006414213328473     17.629811379041289
Au      5.762066878200822      4.996079812593078     17.698048044562732
Au      8.649616775096817      5.000059577066114     17.773182593286716
Hg      2.163219376649848      3.748023785852671     20.316865582235899
