37

Au      0.000000000000000      0.000000000000000     10.000000000000000
Au      2.884995667241114      0.000000000000000     10.000000000000000
Au      5.769991334482229      0.000000000000000     10.000000000000000
Au      1.442497833620557      2.498479537638842     10.000000000000000
Au      4.327493500861672      2.498479537638842     10.000000000000000
Au      7.212489168102786      2.498479537638842     10.000000000000000
Au      2.884995667241114      4.996959075277683     10.000000000000000
Au      5.769991334482229      4.996959075277683     10.000000000000000
Au      8.654987001723343      4.996959075277683     10.000000000000000
Au      1.444874273119960      0.828265257155088     12.553933103849534
Au      4.327493500861672      0.827508619801984     12.581912832717247
Au      7.210112728603381      0.828265257155090     12.553933103849520
Au      2.885400170448436      3.334905782637451     12.572922009455981
Au      5.769586831274904      3.334905782637446     12.572922009455981
Au      8.654987001723343      3.332976074794474     12.543929100075482
Au      4.327493500861672      5.830840635836037     12.607318821316948
Au      7.212069017588465      5.837595017035226     12.586447060358232
Au     10.097904985858223      5.837595017035218     12.586447060358235
Au      0.000000000000001      1.662786614819363     15.072068875914105
Au      2.879658849945856      1.669726729932510     15.109505111346065
Au      5.775328151777496      1.669726729932513     15.109505111346065
Au      1.439621861115387      4.160670086462335     15.116952019090169
Au      4.327493500861672      4.161482328546768     15.130075241256176
Au      7.215365140607955      4.160670086462341     15.116952019090169
Au      2.888496005067351      6.664767470354723     15.147152648529708
Au      5.766490996656000      6.664767470354723     15.147152648529692
Au      8.654987001723343      6.664024618419917     15.128329976770523
Au      0.000000000000001     -0.006201003576885     17.773182593286929
Au      2.882172135293881      0.004960932482873     17.690809164304685
Au      5.772814866429458      0.004960932482874     17.690809164304746
Au      1.451905921201798      2.495864547230023     17.629811379041314
Au      4.327493500861672      2.496273174163341     17.685648233769967
Au      7.203081080521548      2.495864547230018     17.629811379041314
Au      2.880271975278945      4.990535926169089     17.698048044562647
Au      5.774715026444408      4.990535926169089     17.698048044562668
Au      8.654987001723343      5.002553836376356     17.738161058124000
Hg      0.000000000000001      2.497870578850037     20.316865582235948
