37

Au      0.000000000000000      0.000000000000000     10.000000000000000
Au      2.884995667241114      0.000000000000000     10.000000000000000
Au      5.769991334482229      0.000000000000000     10.000000000000000
Au      1.442497833620557      2.498479537638842     10.000000000000000
Au      4.327493500861672      2.498479537638842     10.000000000000000
Au      7.212489168102786      2.498479537638842     10.000000000000000
Au      2.884995667241114      4.996959075277683     10.000000000000000
Au      5.769991334482229      4.996959075277683     10.000000000000000
Au      8.654987001723343      4.996959075277683     10.000000000000000
Au      1.442497833620557      0.832826512546276     12.604871834152727
Au      4.325734232954797      0.828648962191977     12.579982176482165
Au      7.214248436009661      0.828648962191974     12.579982176482153
Au      2.880498168555257      3.331871254662855     12.579982176482181
Au      5.769991334482229      3.331306050185117     12.552618769169365
Au      8.659484500409194      3.331871254662861     12.579982176482181
Au      4.324755270082693      5.833397933700535     12.579982176482188
Au      7.215227398881754      5.833397933700536     12.579982176482188
Au     10.097484835343900      5.829785587823964     12.609287893825940
Au     -0.005986027863601      1.669109059890980     15.123592757542148
Au      2.890981695104711      1.669109059890983     15.123592757542125
Au      5.769991334482229      1.667147613047255     15.119657830460882
Au      1.442497833620558      4.164748516938928     15.135982801371036
Au      4.328787851998623      4.163385268754060     15.119657830460900
Au      7.211194816965830      4.163385268754060     15.119657830460900
Au      2.884462235249826      6.662304123266487     15.135982801371036
Au      5.769991334482229      6.655700030773386     15.123592757542186
Au      8.655520433714624      6.662304123266493     15.135982801371036
Au      0.000249576728592      0.000144093191436     17.693794140436491
Au      2.884746090512523      0.000144093191437     17.693794140436491
Au      5.769991334482229      0.004562452677694     17.722123117485921
Au      1.442497833620557      2.498191351255957     17.693794140436463
Au      4.324451238368220      2.496723086569298     17.715008498192852
Au      7.215531430596237      2.496723086569300     17.715008498192852
Au      2.888946867163567      4.994677848938832     17.722123117485921
Au      5.769991334482229      5.000471977416763     17.715008498193058
Au      8.651035801800914      4.994677848938832     17.722123117485921
Hg      5.769991334482229      3.331306050185108     20.300674402606450
