37

Au      0.000000000000000      0.000000000000000     10.000000000000000
Au      2.884995667241114      0.000000000000000     10.000000000000000
Au      5.769991334482229      0.000000000000000     10.000000000000000
Au      1.442497833620557      2.498479537638842     10.000000000000000
Au      4.327493500861672      2.498479537638842     10.000000000000000
Au      7.212489168102786      2.498479537638842     10.000000000000000
Au      2.884995667241114      4.996959075277683     10.000000000000000
Au      5.769991334482229      4.996959075277683     10.000000000000000
Au      8.654987001723343      4.996959075277683     10.000000000000000
Au      1.445236064399532      0.836438858422849     12.579982176482167
Au      4.327493500861663      0.832826512546280     12.609287893825929
Au      7.209750937323809      0.836438858422850     12.579982176482158
Au      2.883236399334229      3.327128499830818     12.579982176482158
Au      5.771750602389113      3.327128499830817     12.579982176482158
Au      8.654987001723343      3.331306050185118     12.604871834152732
Au      4.327493500861672      5.829785587823964     12.552618769169390
Au      7.216986666788646      5.830350792301690     12.579982176482162
Au     10.092987336658053      5.830350792301691     12.579982176482162
Au      0.000000000000005      1.658740955495710     15.123592757542148
Au      2.885529099232400      1.665345047988793     15.135982801371016
Au      5.769457902490951      1.665345047988801     15.135982801371005
Au      1.448483861484159      4.167588597529816     15.123592757542170
Au      4.327493500861672      4.165627150686106     15.119657830460895
Au      7.206503140239197      4.167588597529833     15.123592757542193
Au      2.886290018378078      6.661864806392888     15.119657830460895
Au      5.768696983345271      6.661864806392895     15.119657830460902
Au      8.654987001723343      6.663228054577763     15.135982801371030
Au     -0.000000000000002      0.003512902139075     17.715008498192923
Au      2.881044467318667     -0.002281226338849     17.722123117485978
Au      5.773942534404692     -0.002281226338852     17.722123117485861
Au      1.442248256891963      2.498623630830273     17.693794140436498
Au      4.327493500861672      2.503041990316536     17.722123117485822
Au      7.212738744831388      2.498623630830278     17.693794140436498
Au      2.881953404747661      4.995202624208134     17.715008498192930
Au      5.773033596975676      4.995202624208147     17.715008498192930
Au      8.654987001723343      4.996670888894807     17.693794140436498
Hg      0.000000000000003     -1.665653025092561     20.300674402606464
