37

Au      0.000000000000000      0.000000000000000     10.000000000000000
Au      2.884995667241114      0.000000000000000     10.000000000000000
Au      5.769991334482229      0.000000000000000     10.000000000000000
Au      1.442497833620557      2.498479537638842     10.000000000000000
Au      4.327493500861672      2.498479537638842     10.000000000000000
Au      7.212489168102786      2.498479537638842     10.000000000000000
Au      2.884995667241114      4.996959075277683     10.000000000000000
Au      5.769991334482229      4.996959075277683     10.000000000000000
Au      8.654987001723343      4.996959075277683     10.000000000000000
Au      1.442492945771749      0.832823690545458     12.594092294400619
Au      4.327498388710490      0.832823690545455     12.594092294400632
Au      7.212489168102787      0.834071540367072     12.556679725940818
Au      2.884995667241116      3.331311694186776     12.594092294400633
Au      5.773703399344867      3.333449211832824     12.596472632479545
Au      8.651274936860712      3.333449211832824     12.596472632479545
Au      4.328571726582904      5.829163073913568     12.556679725940818
Au      7.212489168102786      5.825499264528577     12.596472632479545
Au     10.096406609622676      5.829163073913561     12.556679725940818
Au      0.000939180364521      1.662148613863594     15.131042608099456
Au      2.884995667241114      1.665653025092554     15.113111269223229
Au      5.769052154117707      1.662148613863595     15.131042608099456
Au      1.446002332952412      4.165071414291469     15.131042608099458
Au      4.323989001529823      4.165071414291469     15.131042608099456
Au      7.212489168102787      4.164132562731402     15.120099346492470
Au      2.884995667241114      6.662612100370244     15.088115174576922
Au      5.767426015514904      6.665177660039144     15.131042608099456
Au      8.657552320690662      6.665177660039130     15.131042608099456
Au     -0.001532882066816     -0.000885009873914     17.723844444778656
Au      2.884995667241114      0.000820773667863     17.698066365802326
Au      5.771524216549038     -0.000885009873912     17.723844444778670
Au      1.443208644467685      2.498069150804904     17.698066365802326
Au      4.326782690014546      2.498069150804908     17.698066365802326
Au      7.212489168102786      2.495439439323313     17.706522805430314
Au      2.884995667241114      4.998729095025511     17.723844444778649
Au      5.767358532110980      4.998479124435438     17.706522805430314
Au      8.657619804094582      4.998479124435448     17.706522805430314
Hg     -1.442497833620558     -0.832826512546280     20.319246339251524
