37

Au      0.000000000000000      0.000000000000000     10.000000000000000
Au      2.884995667241114      0.000000000000000     10.000000000000000
Au      5.769991334482229      0.000000000000000     10.000000000000000
Au      1.442497833620557      2.498479537638842     10.000000000000000
Au      4.327493500861672      2.498479537638842     10.000000000000000
Au      7.212489168102786      2.498479537638842     10.000000000000000
Au      2.884995667241114      4.996959075277683     10.000000000000000
Au      5.769991334482229      4.996959075277683     10.000000000000000
Au      8.654987001723343      4.996959075277683     10.000000000000000
Au      1.438000334934701      0.833391717023999     12.579982176482163
Au      4.327493500861672      0.832826512546267     12.552618769169392
Au      7.216986666788655      0.833391717024011     12.579982176482163
Au      2.882257436462135      3.334918396061683     12.579982176482165
Au      5.772729565261214      3.334918396061682     12.579982176482165
Au      8.654987001723343      3.331306050185115     12.609287893825954
Au      4.327493500861672      5.829785587823948     12.604871834152712
Au      7.210729900195904      5.825608037469642     12.579982176482163
Au     10.099244103250804      5.825608037469654     12.579982176482163
Au     -0.000000000000001      1.666268979300082     15.135982801371050
Au      2.886290018378072      1.664905731115208     15.119657830460893
Au      5.768696983345275      1.664905731115205     15.119657830460893
Au      1.441964401629277      4.163824585627634     15.135982801371050
Au      4.327493500861672      4.157220493134549     15.123592757542141
Au      7.213022600094067      4.163824585627632     15.135982801371050
Au      2.879009639377526      6.666068135168666     15.123592757542140
Au      5.775977362345829      6.666068135168665     15.123592757542140
Au      8.654987001723343      6.664106688324924     15.119657830460893
Au      0.000000000000003     -0.000288186382877     17.693794140436509
Au      2.881953404747662     -0.001756451069539     17.715008498192869
Au      5.773033596975679     -0.001756451069539     17.715008498192869
Au      1.446449033543007      2.496198311299997     17.722123117486007
Au      4.327493500861672      2.501992439777931     17.715008498192891
Au      7.208537968180333      2.496198311299993     17.722123117486007
Au      2.885245243969710      4.997103168469127     17.693794140436463
Au      5.769741757753630      4.997103168469114     17.693794140436463
Au      8.654987001723343      5.001521527955378     17.722123117486007
Hg      4.327493500861672      0.832826512546278     20.300674402606372
