37

Au      0.000000000000000      0.000000000000000     10.000000000000000
Au      2.884995667241114      0.000000000000000     10.000000000000000
Au      5.769991334482229      0.000000000000000     10.000000000000000
Au      1.442497833620557      2.498479537638842     10.000000000000000
Au      4.327493500861672      2.498479537638842     10.000000000000000
Au      7.212489168102786      2.498479537638842     10.000000000000000
Au      2.884995667241114      4.996959075277683     10.000000000000000
Au      5.769991334482229      4.996959075277683     10.000000000000000
Au      8.654987001723343      4.996959075277683     10.000000000000000
Au      1.444257101527435      0.828648962191979     12.579982176482167
Au      4.327493500861672      0.832826512546280     12.604871834152727
Au      7.210729900195896      0.828648962191978     12.579982176482167
Au      2.889493165926966      3.331871254662851     12.579982176482167
Au      5.765493835796372      3.331871254662853     12.579982176482167
Au      8.654987001723343      3.331306050185122     12.552618769169380
Au      4.327493500861672      5.829785587823964     12.609287893825957
Au      7.209750937323803      5.833397933700541     12.579982176482167
Au     10.100223066122858      5.833397933700541     12.579982176482167
Au      0.000000000000001      1.667147613047261     15.119657830460891
Au      2.879009639377520      1.669109059890991     15.123592757542175
Au      5.775977362345823      1.669109059890989     15.123592757542170
Au      1.441203482483602      4.163385268754067     15.119657830460891
Au      4.327493500861672      4.164748516938932     15.135982801371055
Au      7.213783519239740      4.163385268754062     15.119657830460891
Au      2.885529099232397      6.662304123266478     15.135982801371041
Au      5.769457902490945      6.662304123266493     15.135982801371034
Au      8.654987001723343      6.655700030773398     15.123592757542175
Au      0.000000000000003      0.004562452677692     17.722123117485935
Au      2.885245243969706      0.000144093191431     17.693794140436516
Au      5.769741757753641      0.000144093191429     17.693794140436516
Au      1.445540096114007      2.496723086569296     17.715008498192876
Au      4.327493500861672      2.498191351255960     17.693794140436516
Au      7.209446905609340      2.496723086569291     17.715008498192876
Au      2.881044467318662      4.994677848938832     17.722123117485935
Au      5.773942534404683      4.994677848938832     17.722123117485935
Au      8.654987001723343      5.000471977416750     17.715008498192923
Hg     -0.000000000000000      3.331306050185122     20.300674402606422
