37

Au      0.000000000000000      0.000000000000000     10.000000000000000
Au      2.884995667241114      0.000000000000000     10.000000000000000
Au      5.769991334482229      0.000000000000000     10.000000000000000
Au      1.442497833620557      2.498479537638842     10.000000000000000
Au      4.327493500861672      2.498479537638842     10.000000000000000
Au      7.212489168102786      2.498479537638842     10.000000000000000
Au      2.884995667241114      4.996959075277683     10.000000000000000
Au      5.769991334482229      4.996959075277683     10.000000000000000
Au      8.654987001723343      4.996959075277683     10.000000000000000
Au      1.442497833620557      0.828540189250884     12.596472632479554
Au      4.326415275140448      0.832203998635882     12.556679725940803
Au      7.213567393824010      0.832203998635877     12.556679725940803
Au      2.885000555089923      3.331303228184294     12.594092294400612
Au      5.769991334482229      3.332551078005907     12.556679725940803
Au      8.654982113874533      3.331303228184293     12.594092294400612
Au      4.331205565724321      5.831928749471659     12.596472632479554
Au      7.208777103240137      5.831928749471655     12.596472632479554
Au     10.097484835343900      5.829791231825608     12.594092294400618
Au     -0.002565318967326      1.668218584761447     15.131042608099429
Au      2.887560986208436      1.668218584761450     15.131042608099429
Au      5.769991334482229      1.665653025092563     15.088115174576910
Au      1.442497833620557      4.164132562731402     15.113111269223189
Au      4.326554320497149      4.160628151502449     15.131042608099429
Au      7.213428348467304      4.160628151502451     15.131042608099429
Au      2.881491167909263      6.663550951930314     15.131042608099470
Au      5.769991334482229      6.662612100370244     15.120099346492513
Au      8.658491501055201      6.663550951930322     15.131042608099470
Au     -0.002632802371245      0.001520049157768     17.706522805430399
Au      2.887628469612362      0.001520049157764     17.706522805430399
Au      5.769991334482229      0.001770019747823     17.723844444778695
Au      1.442497833620557      2.499300311306707     17.698066365802241
Au      4.329026382928488      2.497594527764932     17.723844444778656
Au      7.210956286035969      2.497594527764930     17.723844444778656
Au      2.884284856393994      4.996548688443745     17.698066365802241
Au      5.769991334482229      4.993918976962159     17.706522805430399
Au      8.655697812570482      4.996548688443744     17.698066365802241
Hg      5.769991334482229      1.665653025092561     20.319246339251514
