37

Au      0.000000000000000      0.000000000000000     10.000000000000000
Au      2.884995667241114      0.000000000000000     10.000000000000000
Au      5.769991334482229      0.000000000000000     10.000000000000000
Au      1.442497833620557      2.498479537638842     10.000000000000000
Au      4.327493500861672      2.498479537638842     10.000000000000000
Au      7.212489168102786      2.498479537638842     10.000000000000000
Au      2.884995667241114      4.996959075277683     10.000000000000000
Au      5.769991334482229      4.996959075277683     10.000000000000000
Au      8.654987001723343      4.996959075277683     10.000000000000000
Au      1.442497833620553      0.832832156547932     12.594092294400618
Au      4.331205565724319      0.834969674193980     12.596472632479541
Au      7.208777103240132      0.834969674193981     12.596472632479530
Au      2.886073892962340      3.330683536274730     12.556679725940814
Au      5.769991334482229      3.327019726889723     12.596472632479541
Au      8.653908776002131      3.330683536274730     12.556679725940814
Au      4.327488613012860      5.829782765823132     12.594092294400626
Au      7.212494055951599      5.829782765823129     12.594092294400626
Au     10.097484835343900      5.831030615644756     12.556679725940800
Au      0.003504499331844      1.666591876652628     15.131042608099447
Au      2.881491167909265      1.666591876652629     15.131042608099467
Au      5.769991334482229      1.665653025092558     15.120099346492511
Au      1.442497833620562      4.164132562731402     15.088115174576942
Au      4.324928181894355      4.166698122400290     15.131042608099467
Au      7.215054487070107      4.166698122400284     15.131042608099467
Au      2.885934847605633      6.659107689141283     15.131042608099447
Au      5.769991334482229      6.662612100370244     15.113111269223234
Au      8.654047821358821      6.659107689141281     15.131042608099447
Au      0.000710810847124     -0.000410386833936     17.698066365802351
Au      2.884284856393986     -0.000410386833939     17.698066365802351
Au      5.769991334482229     -0.003040098315529     17.706522805430328
Au      1.442497833620553      2.500249557386655     17.723844444778631
Au      4.324860698490412      2.499999586796600     17.706522805430385
Au      7.215121970474029      2.499999586796600     17.706522805430385
Au      2.883462785174299      4.996074065403771     17.723844444778631
Au      5.769991334482220      4.997779848945534     17.698066365802362
Au      8.656519883790148      4.996074065403763     17.723844444778631
Hg      1.442497833620557      4.164132562731402     20.319246339251457
