37

Au      0.000000000000000      0.000000000000000     10.000000000000000
Au      2.884995667241114      0.000000000000000     10.000000000000000
Au      5.769991334482229      0.000000000000000     10.000000000000000
Au      1.442497833620557      2.498479537638842     10.000000000000000
Au      4.327493500861672      2.498479537638842     10.000000000000000
Au      7.212489168102786      2.498479537638842     10.000000000000000
Au      2.884995667241114      4.996959075277683     10.000000000000000
Au      5.769991334482229      4.996959075277683     10.000000000000000
Au      8.654987001723343      4.996959075277683     10.000000000000000
Au      1.443576059341777      0.832203998635887     12.556679725940837
Au      4.327493500861672      0.828540189250887     12.596472632479559
Au      7.211410942381558      0.832203998635890     12.556679725940850
Au      2.884990779392300      3.331303228184294     12.594092294400625
Au      5.769996222331034      3.331303228184296     12.594092294400625
Au      8.654987001723343      3.332551078005919     12.556679725940850
Au      4.327493500861672      5.829791231825626     12.594092294400625
Au      7.216201232965422      5.831928749471663     12.596472632479550
Au     10.093772770481257      5.831928749471665     12.596472632479559
Au     -0.000000000000001      1.665653025092567     15.088115174576959
Au      2.882430348273793      1.668218584761460     15.131042608099486
Au      5.772556653449552      1.668218584761457     15.131042608099486
Au      1.443437013985082      4.160628151502447     15.131042608099486
Au      4.327493500861672      4.164132562731402     15.113111269223271
Au      7.211549987738261      4.160628151502443     15.131042608099440
Au      2.888500166572975      6.663550951930309     15.131042608099486
Au      5.766486835150393      6.663550951930323     15.131042608099440
Au      8.654987001723343      6.662612100370244     15.120099346492502
Au     -0.000000000000000      0.001770019747830     17.723844444778621
Au      2.882362864869871      0.001520049157768     17.706522805430371
Au      5.772624136853472      0.001520049157767     17.706522805430261
Au      1.440964951553739      2.497594527764931     17.723844444778621
Au      4.327493500861672      2.499300311306713     17.698066365802365
Au      7.214022050169604      2.497594527764933     17.723844444778621
Au      2.885706478088242      4.996548688443756     17.698066365802365
Au      5.769280523635117      4.996548688443758     17.698066365802227
Au      8.654987001723343      4.993918976962167     17.706522805430371
Hg      0.000000000000000      1.665653025092561     20.319246339251514
