37

Au      0.000000000000000      0.000000000000000     10.000000000000000
Au      2.884995667241114      0.000000000000000     10.000000000000000
Au      5.769991334482229      0.000000000000000     10.000000000000000
Au      1.442497833620557      2.498479537638842     10.000000000000000
Au      4.327493500861672      2.498479537638842     10.000000000000000
Au      7.212489168102786      2.498479537638842     10.000000000000000
Au      2.884995667241114      4.996959075277683     10.000000000000000
Au      5.769991334482229      4.996959075277683     10.000000000000000
Au      8.654987001723343      4.996959075277683     10.000000000000000
Au      1.442497833620555      0.834071540367074     12.556679725940841
Au      4.327488613012862      0.832823690545460     12.594092294400628
Au      7.212494055951590      0.832823690545457     12.594092294400609
Au      2.881283602378465      3.333449211832820     12.596472632479555
Au      5.769991334482229      3.331311694186783     12.594092294400609
Au      8.658699066585976      3.333449211832822     12.596472632479555
Au      4.326415275140445      5.829163073913573     12.556679725940835
Au      7.213567393824002      5.829163073913572     12.556679725940841
Au     10.097484835343900      5.825499264528560     12.596472632479546
Au     -0.000939180364523      1.662148613863606     15.131042608099461
Au      2.885934847605637      1.662148613863606     15.131042608099467
Au      5.769991334482229      1.665653025092565     15.113111269223271
Au      1.442497833620557      4.164132562731402     15.120099346492481
Au      4.330998000193522      4.165071414291463     15.131042608099445
Au      7.208984668770936      4.165071414291476     15.131042608099461
Au      2.887560986208443      6.665177660039142     15.131042608099445
Au      5.769991334482229      6.662612100370244     15.088115174576965
Au      8.652421682756023      6.665177660039151     15.131042608099447
Au      0.001532882066815     -0.000885009873897     17.723844444778646
Au      2.883462785174298     -0.000885009873902     17.723844444778653
Au      5.769991334482229      0.000820773667874     17.698066365802344
Au      1.442497833620560      2.495439439323333     17.706522805430296
Au      4.328204311708790      2.498069150804926     17.698066365802344
Au      7.211778357255667      2.498069150804926     17.698066365802344
Au      2.887628469612356      4.998479124435457     17.706522805430296
Au      5.769991334482229      4.998729095025516     17.723844444778646
Au      8.652354199352098      4.998479124435454     17.706522805430296
Hg      1.442497833620557     -0.832826512546280     20.319246339251517
