37

Au      0.000000000000000      0.000000000000000     10.000000000000000
Au      2.884995667241114      0.000000000000000     10.000000000000000
Au      5.769991334482229      0.000000000000000     10.000000000000000
Au      1.442497833620557      2.498479537638842     10.000000000000000
Au      4.327493500861672      2.498479537638842     10.000000000000000
Au      7.212489168102786      2.498479537638842     10.000000000000000
Au      2.884995667241114      4.996959075277683     10.000000000000000
Au      5.769991334482229      4.996959075277683     10.000000000000000
Au      8.654987001723343      4.996959075277683     10.000000000000000
Au      1.442497833620558      0.831982448491358     12.528143352817455
Au      4.321866037838946      0.836075529837299     12.567413173765990
Au      7.218116631125506      0.836075529837300     12.567413173765990
Au      2.885726648155101      3.331728082212580     12.528143352817454
Au      5.769991334482229      3.331179271406375     12.612386458825451
Au      8.654256020809349      3.331728082212579     12.528143352817455
Au      4.327383707218615      5.829848977213339     12.612386458825483
Au      7.212598961745833      5.829848977213335     12.612386458825451
Au     10.097484835343900      5.823287553241907     12.567413173765987
Au     -0.002014769539356      1.664489797356646     15.080257842505672
Au      2.887010436780471      1.664489797356651     15.080257842505672
Au      5.769991334482229      1.662739647799370     15.146416517866552
Au      1.442497833620553      4.166459018203187     15.080257842505663
Au      4.324731533546797      4.162537940158651     15.158531348998215
Au      7.215251135417661      4.162537940158651     15.158531348998215
Au      2.882472608494408      6.664068789016821     15.146416517866541
Au      5.769991334482229      6.665801345515704     15.158531348998235
Au      8.657510060470045      6.664068789016823     15.146416517866520
Au      0.000886373308348      0.002897461158281     17.725450706883244
Au      2.884109293932766      0.002897461158289     17.725450706883244
Au      5.769991334482229     -0.000000000000005     17.711431622218473
Au      1.442497833620553      2.498479537638842     17.547884726473605
Au      4.324541039237939      2.497798428861962     17.725450706883244
Au      7.215441629726518      2.497798428861960     17.725450706883244
Au      2.882929578925733      4.994742722896267     17.725450706883244
Au      5.769991334482229      4.996959075277683     17.705340166314834
Au      8.657053090038721      4.994742722896268     17.725450706883244
Hg      1.442497833620557      2.498479537638842     20.544711967523565
