37

Au      0.000000000000000      0.000000000000000     10.000000000000000
Au      2.884995667241114      0.000000000000000     10.000000000000000
Au      5.769991334482229      0.000000000000000     10.000000000000000
Au      1.442497833620557      2.498479537638842     10.000000000000000
Au      4.327493500861672      2.498479537638842     10.000000000000000
Au      7.212489168102786      2.498479537638842     10.000000000000000
Au      2.884995667241114      4.996959075277683     10.000000000000000
Au      5.769991334482229      4.996959075277683     10.000000000000000
Au      8.654987001723343      4.996959075277683     10.000000000000000
Au      1.436870370597829      0.836075529837302     12.567413173765988
Au      4.333120963884392      0.836075529837299     12.567413173765992
Au      7.212489168102787      0.831982448491358     12.528143352817454
Au      2.884995667241113      3.331179271406381     12.612386458825462
Au      5.769260353568234      3.331728082212582     12.528143352817454
Au      8.655717982637324      3.331728082212577     12.528143352817471
Au      4.327603294504724      5.829848977213334     12.612386458825442
Au      7.212489168102786      5.823287553241913     12.567413173766020
Au     10.097375041700849      5.829848977213331     12.612386458825442
Au      0.002014769539352      1.664489797356657     15.080257842505697
Au      2.884995667241121      1.662739647799371     15.146416517866555
Au      5.767976564942888      1.664489797356653     15.080257842505647
Au      1.439735866305694      4.162537940158663     15.158531348998203
Au      4.330255468176549      4.162537940158665     15.158531348998203
Au      7.212489168102787      4.166459018203202     15.080257842505690
Au      2.884995667241121      6.665801345515693     15.158531348998203
Au      5.772514393228938      6.664068789016836     15.146416517866559
Au      8.652463942976642      6.664068789016833     15.146416517866555
Au     -0.000886373308350      0.002897461158286     17.725450706883166
Au      2.884995667241114      0.000000000000001     17.711431622218601
Au      5.770877707790575      0.002897461158289     17.725450706883144
Au      1.439545371996828      2.497798428861962     17.725450706883166
Au      4.330445962485404      2.497798428861968     17.725450706883144
Au      7.212489168102786      2.498479537638842     17.547884726473718
Au      2.884995667241112      4.996959075277683     17.705340166314993
Au      5.772057422797606      4.994742722896274     17.725450706883166
Au      8.652920913407961      4.994742722896270     17.725450706883166
Hg      7.212489168102786      2.498479537638842     20.544711967523781
