37

Au      0.000000000000000      0.000000000000000     10.000000000000000
Au      2.884995667241114      0.000000000000000     10.000000000000000
Au      5.769991334482229      0.000000000000000     10.000000000000000
Au      1.442497833620557      2.498479537638842     10.000000000000000
Au      4.327493500861672      2.498479537638842     10.000000000000000
Au      7.212489168102786      2.498479537638842     10.000000000000000
Au      2.884995667241114      4.996959075277683     10.000000000000000
Au      5.769991334482229      4.996959075277683     10.000000000000000
Au      8.654987001723343      4.996959075277683     10.000000000000000
Au      1.448125296643290      0.836075529837304     12.567413173765996
Au      4.327493500861672      0.831982448491357     12.528143352817443
Au      7.206861705080060      0.836075529837305     12.567413173765996
Au      2.884264686327129      3.331728082212575     12.528143352817439
Au      5.770722315396214      3.331728082212579     12.528143352817439
Au      8.654987001723343      3.331179271406376     12.612386458825469
Au      4.327493500861672      5.823287553241904     12.567413173765994
Au      7.212379374459733      5.829848977213331     12.612386458825462
Au     10.097594628986952      5.829848977213334     12.612386458825462
Au      0.000000000000001      1.662739647799363     15.146416517866589
Au      2.882980897701759      1.664489797356652     15.080257842505691
Au      5.772006104021584      1.664489797356652     15.080257842505691
Au      1.445259800935424      4.162537940158666     15.158531348998219
Au      4.327493500861672      4.166459018203193     15.080257842505654
Au      7.209727200787918      4.162537940158666     15.158531348998219
Au      2.887518725987828      6.664068789016827     15.146416517866589
Au      5.767468275735518      6.664068789016828     15.146416517866589
Au      8.654987001723343      6.665801345515699     15.158531348998219
Au      0.000000000000002     -0.000000000000003     17.711431622218626
Au      2.885882040549466      0.002897461158289     17.725450706883191
Au      5.769104961173877      0.002897461158286     17.725450706883191
Au      1.445450295244286      2.497798428861967     17.725450706883191
Au      4.327493500861672      2.498479537638847     17.547884726473722
Au      7.209536706479057      2.497798428861961     17.725450706883191
Au      2.887061755556496      4.994742722896269     17.725450706883191
Au      5.767925246166851      4.994742722896269     17.725450706883191
Au      8.654987001723343      4.996959075277683     17.705340166314990
Hg      4.327493500861672      2.498479537638842     20.544711967523799
