37

Au      0.000000000000000      0.000000000000000     10.000000000000000
Au      2.884995667241114      0.000000000000000     10.000000000000000
Au      5.769991334482229      0.000000000000000     10.000000000000000
Au      1.442497833620557      2.498479537638842     10.000000000000000
Au      4.327493500861672      2.498479537638842     10.000000000000000
Au      7.212489168102786      2.498479537638842     10.000000000000000
Au      2.884995667241114      4.996959075277683     10.000000000000000
Au      5.769991334482229      4.996959075277683     10.000000000000000
Au      8.654987001723343      4.996959075277683     10.000000000000000
Au      1.442607627263611      0.832889901935657     12.612386458825476
Au      4.327493500861672      0.826328477964209     12.567413173766040
Au      7.212379374459736      0.832889901935648     12.612386458825476
Au      2.879368204218385      3.334555067476152     12.567413173766019
Au      5.775618797504967      3.334555067476152     12.567413173765990
Au      8.654987001723343      3.330461986130201     12.528143352817429
Au      4.327493500861684      5.829658809045217     12.612386458825476
Au      7.211758187188809      5.830207619851423     12.528143352817445
Au     10.098215816257888      5.830207619851419     12.528143352817452
Au     -0.000000000000001      1.668842270238015     15.158531348998226
Au      2.887518725987825      1.667109713739134     15.146416517866596
Au      5.767468275735523      1.667109713739139     15.146416517866568
Au      1.444512603159906      4.162969334995482     15.080257842505697
Au      4.327493500861672      4.161219185438198     15.146416517866568
Au      7.210474398563433      4.162969334995489     15.080257842505668
Au      2.882233699926244      6.661017477797494     15.158531348998226
Au      5.772753301797090      6.661017477797499     15.158531348998226
Au      8.654987001723343      6.664938555842022     15.080257842505709
Au     -0.000000000000002      0.000000000000003     17.705340166315004
Au      2.887061755556487     -0.002216352381408     17.725450706883208
Au      5.767925246166842     -0.002216352381407     17.725450706883201
Au      1.441611460312211      2.501376998797130     17.725450706883208
Au      4.327493500861672      2.498479537638842     17.711431622218644
Au      7.213375541411136      2.501376998797123     17.725450706883201
Au      2.882043205617387      4.996277966500813     17.725450706883208
Au      5.772943796105957      4.996277966500803     17.725450706883208
Au      8.654987001723343      4.996959075277678     17.547884726473761
Hg      8.654987001723343      4.996959075277683     20.544711967523781
