37

Au      0.000000000000000      0.000000000000000     10.000000000000000
Au      2.884995667241114      0.000000000000000     10.000000000000000
Au      5.769991334482229      0.000000000000000     10.000000000000000
Au      1.442497833620557      2.498479537638842     10.000000000000000
Au      4.327493500861672      2.498479537638842     10.000000000000000
Au      7.212489168102786      2.498479537638842     10.000000000000000
Au      2.884995667241114      4.996959075277683     10.000000000000000
Au      5.769991334482229      4.996959075277683     10.000000000000000
Au      8.654987001723343      4.996959075277683     10.000000000000000
Au      1.442497833620562      0.826328477964216     12.567413173766003
Au      4.327383707218622      0.832889901935660     12.612386458825474
Au      7.212598961745837      0.832889901935658     12.612386458825474
Au      2.890623130263863      3.334555067476166     12.567413173765999
Au      5.769991334482229      3.330461986130204     12.528143352817478
Au      8.649359538700599      3.334555067476159     12.567413173765999
Au      4.326762519947697      5.830207619851434     12.528143352817434
Au      7.213220149016776      5.830207619851424     12.528143352817452
Au     10.097484835343900      5.829658809045224     12.612386458825471
Au      0.002523058746701      1.667109713739144     15.146416517866614
Au      2.882472608494409      1.667109713739156     15.146416517866585
Au      5.769991334482229      1.668842270238022     15.158531348998268
Au      1.442497833620557      4.161219185438196     15.146416517866525
Au      4.325478731322326      4.162969334995505     15.080257842505690
Au      7.214503937642134      4.162969334995498     15.080257842505723
Au      2.887757634555980      6.661017477797504     15.158531348998233
Au      5.769991334482229      6.664938555842037     15.080257842505709
Au      8.652225034408474      6.661017477797504     15.158531348998206
Au      0.002066088315373     -0.002216352381411     17.725450706883297
Au      2.882929578925738     -0.002216352381410     17.725450706883120
Au      5.769991334482229     -0.000000000000010     17.705340166314954
Au      1.442497833620557      2.498479537638835     17.711431622218655
Au      4.328379874170023      2.501376998797120     17.725450706883297
Au      7.211602794794435      2.501376998797121     17.725450706883297
Au      2.887948128864839      4.996277966500804     17.725450706883120
Au      5.769991334482229      4.996959075277683     17.547884726473818
Au      8.652034540099615      4.996277966500806     17.725450706883120
Hg      5.769991334482229      4.996959075277683     20.544711967523888
