37

Au      0.000000000000000      0.000000000000000     10.000000000000000
Au      2.884995667241114      0.000000000000000     10.000000000000000
Au      5.769991334482229      0.000000000000000     10.000000000000000
Au      1.442497833620557      2.498479537638842     10.000000000000000
Au      4.327493500861672      2.498479537638842     10.000000000000000
Au      7.212489168102786      2.498479537638842     10.000000000000000
Au      2.884995667241114      4.996959075277683     10.000000000000000
Au      5.769991334482229      4.996959075277683     10.000000000000000
Au      8.654987001723343      4.996959075277683     10.000000000000000
Au      1.442388039977504      0.832889901935659     12.612386458825462
Au      4.327603294504726      0.832889901935661     12.612386458825506
Au      7.212489168102787      0.826328477964229     12.567413173765987
Au      2.884995667241117      3.330461986130199     12.528143352817439
Au      5.764363871459503      3.334555067476150     12.567413173765985
Au      8.660614464746070      3.334555067476157     12.567413173766013
Au      4.328224481775663      5.830207619851428     12.528143352817445
Au      7.212489168102796      5.829658809045234     12.612386458825462
Au     10.096753854429922      5.830207619851429     12.528143352817464
Au     -0.002523058746709      1.667109713739151     15.146416517866593
Au      2.884995667241114      1.668842270238023     15.158531348998237
Au      5.772514393228938      1.667109713739147     15.146416517866612
Au      1.440483064081211      4.162969334995494     15.080257842505656
Au      4.329508270401028      4.162969334995497     15.080257842505631
Au      7.212489168102787      4.161219185438209     15.146416517866568
Au      2.884995667241125      6.664938555842045     15.080257842505652
Au      5.767229367167368      6.661017477797501     15.158531348998237
Au      8.657748969038209      6.661017477797505     15.158531348998237
Au     -0.002066088315379     -0.002216352381416     17.725450706883198
Au      2.884995667241114     -0.000000000000005     17.705340166315022
Au      5.772057422797614     -0.002216352381418     17.725450706883198
Au      1.443384206928906      2.501376998797130     17.725450706883198
Au      4.326607127553318      2.501376998797127     17.725450706883198
Au      7.212489168102786      2.498479537638835     17.711431622218722
Au      2.884995667241114      4.996959075277683     17.547884726473608
Au      5.767038872858492      4.996277966500804     17.725450706883191
Au      8.657939463347081      4.996277966500806     17.725450706883191
Hg      2.884995667241114      4.996959075277683     20.544711967523586
