37

Au      0.000000000000000      0.000000000000000     10.000000000000000
Au      2.884995667241114      0.000000000000000     10.000000000000000
Au      5.769991334482229      0.000000000000000     10.000000000000000
Au      1.442497833620557      2.498479537638842     10.000000000000000
Au      4.327493500861672      2.498479537638842     10.000000000000000
Au      7.212489168102786      2.498479537638842     10.000000000000000
Au      2.884995667241114      4.996959075277683     10.000000000000000
Au      5.769991334482229      4.996959075277683     10.000000000000000
Au      8.654987001723343      4.996959075277683     10.000000000000000
Au      1.442497833620557      0.832699733767532     12.612386458825490
Au      4.326762519947685      0.833248544573736     12.528143352817434
Au      7.213220149016774      0.833248544573735     12.528143352817452
Au      2.885105460884171      3.331369439574491     12.612386458825490
Au      5.769991334482229      3.324808015603047     12.567413173765992
Au      8.654877208080300      3.331369439574490     12.612386458825490
Au      4.321866037838928      5.833034605114987     12.567413173765988
Au      7.218116631125527      5.833034605114988     12.567413173765988
Au     10.097484835343900      5.828941523769034     12.528143352817480
Au     -0.002761967314873      1.664058402519812     15.158531348998254
Au      2.887757634555978      1.664058402519819     15.158531348998217
Au      5.769991334482229      1.667979480564349     15.080257842505667
Au      1.442497833620551      4.167321807876864     15.158531348998254
Au      4.330016559608384      4.165589251377980     15.146416517866623
Au      7.209966109356070      4.165589251377985     15.146416517866623
Au      2.887010436780461      6.661448872634337     15.080257842505670
Au      5.769991334482211      6.659698723077028     15.146416517866582
Au      8.652972232183981      6.661448872634342     15.080257842505659
Au     -0.002952461623730     -0.000681108776875     17.725450706883240
Au      2.887948128864842     -0.000681108776872     17.725450706883070
Au      5.769991334482229     -0.000000000000011     17.547884726473697
Au      1.442497833620554      2.498479537638842     17.705340166314972
Au      4.329559589177047      2.496263185257428     17.725450706883240
Au      7.210423079787400      2.496263185257422     17.725450706883240
Au      2.884109293932756      4.999856536435967     17.725450706883233
Au      5.769991334482229      4.996959075277683     17.711431622218726
Au      8.655873375031680      4.999856536435967     17.725450706883240
Hg      5.769991334482229     -0.000000000000000     20.544711967523739
