37
Lattice="8.654987001723343 0.0 0.0 4.327493500861672 7.495438612916525 0.0 0.0 0.0 27.066767294881018" Properties=species:S:1:pos:R:3:tags:I:1:stresses:R:6:energies:R:1:forces:R:3 stress="-0.016442599260321624 -6.633252104957962e-19 -4.959703797853991e-20 -6.633252104957962e-19 -0.016442599260321673 4.209368073763037e-18 -4.959703797853991e-20 4.209368073763037e-18 -8.079293929706937e-05" energy=-11.055564715412102 free_energy=-11.055564715412102 pbc="T T F"
Au      -0.00000000      -0.00000000       9.66277362        4      -0.00047735      -0.00047736       0.00002397      -0.00000003      -0.00000004       0.00000001      -0.24139438      -0.00007268      -0.00004196       0.00566178
Au       2.88499567      -0.00000000       9.66277362        4      -0.00047735      -0.00047736       0.00002397      -0.00000003       0.00000004      -0.00000001      -0.24139438       0.00007268      -0.00004196       0.00566178
Au       5.76999133       0.00000913       9.66273981        4      -0.00047735      -0.00047752       0.00002351       0.00000015       0.00000000       0.00000000      -0.24135460      -0.00000000       0.00015851       0.00503883
Au       1.44249783       2.49847954       9.66277362        4      -0.00047736      -0.00047735       0.00002397       0.00000005      -0.00000000       0.00000000      -0.24139438      -0.00000000       0.00008392       0.00566178
Au       4.32749723       2.49848169       9.66276520        4      -0.00047728      -0.00047734       0.00002404       0.00000006       0.00000010       0.00000006      -0.24136909       0.00014416       0.00008323       0.00584254
Au       7.21248544       2.49848169       9.66276520        4      -0.00047728      -0.00047734       0.00002404       0.00000006      -0.00000010      -0.00000006      -0.24136909      -0.00014416       0.00008323       0.00584254
Au       2.88500357       4.99695451       9.66273981        4      -0.00047748      -0.00047739       0.00002351      -0.00000007       0.00000013       0.00000007      -0.24135460       0.00013727      -0.00007926       0.00503883
Au       5.76999133       4.99695477       9.66276520        4      -0.00047738      -0.00047725       0.00002404      -0.00000012       0.00000000      -0.00000000      -0.24136909      -0.00000000      -0.00016646       0.00584254
Au       8.65497910       4.99695451       9.66273981        4      -0.00047748      -0.00047739       0.00002351      -0.00000007      -0.00000013      -0.00000007      -0.24135460      -0.00013727      -0.00007926       0.00503883
Au       1.44249783       0.83282651      12.24706994        3      -0.00044019      -0.00044019      -0.00001506      -0.00000000       0.00000000      -0.00000000      -0.35855259       0.00000000       0.00000000      -0.00609897
Au       4.32771151       0.83288401      12.24722033        3      -0.00043954      -0.00044022      -0.00001194       0.00000036       0.00000279       0.00000108      -0.35845171       0.00238422       0.00018801      -0.00118195
Au       7.21227116       0.83288401      12.24722033        3      -0.00043954      -0.00044022      -0.00001194       0.00000036      -0.00000279      -0.00000108      -0.35845171      -0.00238422       0.00018801      -0.00118195
Au       2.88515447       3.33146610      12.24722033        3      -0.00043912      -0.00044064      -0.00001194       0.00000224       0.00000171       0.00000083      -0.35845171       0.00135493       0.00197079      -0.00118195
Au       5.76999133       3.33130605      12.24811539        3      -0.00043814      -0.00043814      -0.00000310      -0.00000000       0.00000000       0.00000000      -0.35888756      -0.00000000      -0.00000000       0.01008563
Au       8.65482820       3.33146610      12.24722033        3      -0.00043912      -0.00044064      -0.00001194       0.00000224      -0.00000171      -0.00000083      -0.35845171      -0.00135493       0.00197079      -0.00118195
Au       4.32743429       5.82956804      12.24722033        3      -0.00044098      -0.00043878      -0.00001194      -0.00000260      -0.00000109      -0.00000024      -0.35845171      -0.00102929      -0.00215880      -0.00118195
Au       7.21254838       5.82956804      12.24722033        3      -0.00044098      -0.00043878      -0.00001194      -0.00000260       0.00000109       0.00000024      -0.35845171       0.00102929      -0.00215880      -0.00118195
Au      10.09748484       5.82978559      12.24606919        3      -0.00044157      -0.00044157      -0.00001913       0.00000000      -0.00000000       0.00000000      -0.35779358       0.00000000      -0.00000000      -0.00899504
Au      -0.00276532       1.66724958      14.80562086        2      -0.00043843      -0.00044245      -0.00005360       0.00000791      -0.00001370      -0.00000348      -0.35904662       0.00004890      -0.00002823      -0.04764787
Au       2.88776098       1.66724958      14.80562086        2      -0.00043843      -0.00044245      -0.00005360       0.00000791       0.00001370       0.00000348      -0.35904662      -0.00004890      -0.00002823      -0.04764787
Au       5.76999133       1.66555035      14.82229278        2      -0.00043944      -0.00043656       0.00000436      -0.00000137      -0.00000000       0.00000000      -0.36028615      -0.00000000       0.00044083       0.00634984
Au       1.44249783       4.16905841      14.80820317        2      -0.00044052      -0.00045811      -0.00002759       0.00001841      -0.00000000      -0.00000000      -0.35715402      -0.00000000      -0.01307321      -0.01438819
Au       4.32740458       4.16418390      14.82229278        2      -0.00043728      -0.00043872       0.00000436       0.00000068      -0.00000118      -0.00000125      -0.36028615       0.00038177      -0.00022041       0.00634984
Au       7.21257809       4.16418390      14.82229278        2      -0.00043728      -0.00043872       0.00000436       0.00000068       0.00000118       0.00000125      -0.36028615      -0.00038177      -0.00022041       0.00634984
Au       2.88072976       6.66014917      14.80820317        2      -0.00045371      -0.00044492      -0.00002759      -0.00000921      -0.00001595      -0.00000762      -0.35715402       0.01132173       0.00653660      -0.01438819
Au       5.76999133       6.65941899      14.80562086        2      -0.00044446      -0.00043643      -0.00005360      -0.00001582      -0.00000000      -0.00000000      -0.35904662      -0.00000000       0.00005646      -0.04764787
Au       8.65925291       6.66014917      14.80820317        2      -0.00045371      -0.00044492      -0.00002759      -0.00000921       0.00001595       0.00000762      -0.35715402      -0.01132173       0.00653660      -0.01438819
Au       0.00002182       0.00001260      17.31863054        1      -0.00049494      -0.00049226      -0.00006974      -0.00000311      -0.00000538      -0.00000232      -0.26490805      -0.02453004      -0.01416242       0.02665752
Au       2.88497384       0.00001260      17.31863054        1      -0.00049494      -0.00049226      -0.00006974      -0.00000311       0.00000538       0.00000232      -0.26490805       0.02453004      -0.01416242       0.02665752
Au       5.76999133       0.00042110      17.41101933        1      -0.00045710      -0.00047338       0.00003805       0.00000305       0.00000000       0.00000000      -0.24751077      -0.00000000      -0.00452046       0.00106308
Au       1.44249783       2.49845434      17.31863054        1      -0.00049092      -0.00049628      -0.00006974       0.00000621      -0.00000000      -0.00000000      -0.26490805      -0.00000000       0.02832485       0.02665752
Au       4.32450322       2.49675310      17.41484873        1      -0.00045303      -0.00046593       0.00004353      -0.00001048      -0.00001816       0.00001117      -0.25170325       0.00184674       0.00106622       0.01064054
Au       7.21547945       2.49675310      17.41484873        1      -0.00045303      -0.00046593       0.00004353      -0.00001048       0.00001816      -0.00001117      -0.25170325      -0.00184674       0.00106622       0.01064054
Au       2.88536035       4.99674853      17.41101933        1      -0.00046931      -0.00046117       0.00003805      -0.00000153       0.00000264       0.00000705      -0.24751077      -0.00391484       0.00226023       0.00106308
Au       5.76999133       5.00041196      17.41484873        1      -0.00047238      -0.00044658       0.00004353       0.00002097      -0.00000000      -0.00000000      -0.25170325      -0.00000000      -0.00213244       0.01064054
Au       8.65462232       4.99674853      17.41101933        1      -0.00046931      -0.00046117       0.00003805      -0.00000153      -0.00000264      -0.00000705      -0.24751077       0.00391484       0.00226023       0.00106308
Hg       1.44249783       0.83282651      19.88296491        0       0.00005112       0.00005112       0.00000852       0.00000000      -0.00000000      -0.00000000      -0.13543994       0.00000000      -0.00000000       0.01444587
