37
Lattice="8.654987001723343 0.0 0.0 4.327493500861672 7.495438612916525 0.0 0.0 0.0 27.066767294881018" Properties=species:S:1:pos:R:3:tags:I:1:stresses:R:6:energies:R:1:forces:R:3 stress="-0.01644005575550886 2.3767132257774823e-18 5.155794257257732e-18 2.3767132257774823e-18 -0.016440055755508894 -2.4735207462450273e-18 5.155794257257732e-18 -2.4735207462450273e-18 -5.155669237850689e-05" energy=-11.056671495235728 free_energy=-11.056671495235728 pbc="T T F"
Au       0.00000015       0.00000009       9.66357132        4      -0.00047760      -0.00047755       0.00002263      -0.00000009      -0.00000015      -0.00000004      -0.24137120      -0.00022821      -0.00013176       0.00377520
Au       2.88499567      -0.00002678       9.66367502        4      -0.00047766      -0.00047733       0.00002310      -0.00000035      -0.00000000       0.00000000      -0.24143386      -0.00000000      -0.00032102       0.00438451
Au       5.76999118       0.00000009       9.66357132        4      -0.00047760      -0.00047755       0.00002263      -0.00000009       0.00000015       0.00000004      -0.24137120       0.00022821      -0.00013176       0.00377520
Au       1.44247464       2.49849293       9.66367502        4      -0.00047741      -0.00047758       0.00002310       0.00000017      -0.00000030      -0.00000015      -0.24143386      -0.00027801       0.00016051       0.00438451
Au       4.32751669       2.49849293       9.66367502        4      -0.00047741      -0.00047758       0.00002310       0.00000017       0.00000030       0.00000015      -0.24143386       0.00027801       0.00016051       0.00438451
Au       7.21248917       2.49848738       9.66370509        4      -0.00047730      -0.00047742       0.00002372       0.00000004       0.00000000      -0.00000000      -0.24143478       0.00000000       0.00002324       0.00538288
Au       2.88499567       4.99695890       9.66357132        4      -0.00047753      -0.00047762       0.00002263       0.00000017       0.00000000      -0.00000000      -0.24137120       0.00000000       0.00026352       0.00377520
Au       5.76999813       4.99695515       9.66370509        4      -0.00047739      -0.00047733       0.00002372      -0.00000002       0.00000003       0.00000005      -0.24143478       0.00002013      -0.00001162       0.00538288
Au       8.65498021       4.99695515       9.66370509        4      -0.00047739      -0.00047733       0.00002372      -0.00000002      -0.00000003      -0.00000005      -0.24143478      -0.00002013      -0.00001162       0.00538288
Au       1.44213612       0.83261768      12.24606966        3      -0.00044263      -0.00044070      -0.00002365      -0.00000196      -0.00000340      -0.00000167      -0.35800444      -0.00220158      -0.00127109      -0.01378734
Au       4.32785521       0.83261768      12.24606966        3      -0.00044263      -0.00044070      -0.00002365      -0.00000196       0.00000340       0.00000167      -0.35800444       0.00220158      -0.00127109      -0.01378734
Au       7.21248917       0.83211527      12.24708350        3      -0.00044230      -0.00044041      -0.00001433      -0.00000408       0.00000000       0.00000000      -0.35811762      -0.00000000      -0.00001166      -0.00173915
Au       2.88499567       3.33172372      12.24606966        3      -0.00043974      -0.00044359      -0.00002365       0.00000392      -0.00000000      -0.00000000      -0.35800444       0.00000000       0.00254217      -0.01378734
Au       5.77036273       3.33152048      12.24822525        3      -0.00043914      -0.00043943      -0.00001233       0.00000125       0.00000216       0.00000025      -0.35870405       0.00040173       0.00023194      -0.00117140
Au       8.65461560       3.33152048      12.24822525        3      -0.00043914      -0.00043943      -0.00001233       0.00000125      -0.00000216      -0.00000025      -0.35870405      -0.00040173       0.00023194      -0.00117140
Au       4.32687755       5.83014121      12.24708350        3      -0.00044088      -0.00044183      -0.00001433       0.00000204      -0.00000353      -0.00000082      -0.35811762      -0.00001010       0.00000583      -0.00173915
Au       7.21248917       5.82935673      12.24822525        3      -0.00043958      -0.00043900      -0.00001233      -0.00000249       0.00000000      -0.00000000      -0.35870405      -0.00000000      -0.00046387      -0.00117140
Au      10.09810079       5.83014121      12.24708350        3      -0.00044088      -0.00044183      -0.00001433       0.00000204       0.00000353       0.00000082      -0.35811762       0.00001010       0.00000583      -0.00173915
Au      -0.00230314       1.66399147      14.80652735        2      -0.00044583      -0.00043770      -0.00002250      -0.00000925      -0.00001099      -0.00000421      -0.35891875      -0.00023699      -0.00067009      -0.00193962
Au       2.88499567       1.66565303      14.78654687        2      -0.00044469      -0.00044469      -0.00006567       0.00000000       0.00000000      -0.00000000      -0.35871605       0.00000000       0.00000000      -0.02457484
Au       5.77229447       1.66399147      14.80652735        2      -0.00044583      -0.00043770      -0.00002250      -0.00000925       0.00001099       0.00000421      -0.35891875       0.00023699      -0.00067009      -0.00193962
Au       1.44278521       4.16695791      14.80652735        2      -0.00043609      -0.00044745      -0.00002250       0.00001414       0.00000252       0.00000142      -0.35891875       0.00046182       0.00054029      -0.00193962
Au       4.32720612       4.16695791      14.80652735        2      -0.00043609      -0.00044745      -0.00002250       0.00001414      -0.00000252      -0.00000142      -0.35891875      -0.00046182       0.00054029      -0.00193962
Au       7.21248917       4.16413256      14.82290643        2      -0.00043353      -0.00043353       0.00000164      -0.00000000      -0.00000000      -0.00000000      -0.36110593      -0.00000000       0.00000000       0.00655110
Au       2.88499567       6.66261210      14.82409833        2      -0.00044510      -0.00044510       0.00000713      -0.00000000       0.00000000       0.00000000      -0.35844829      -0.00000000      -0.00000000       0.00897434
Au       5.76740082       6.66144830      14.80652735        2      -0.00044338      -0.00044015      -0.00002250      -0.00000489      -0.00001350      -0.00000563      -0.35891875      -0.00069881       0.00012981      -0.00193962
Au       8.65757752       6.66144830      14.80652735        2      -0.00044338      -0.00044015      -0.00002250      -0.00000489       0.00001350       0.00000563      -0.35891875       0.00069881       0.00012981      -0.00193962
Au       0.00236955       0.00136806      17.41630400        1      -0.00045454      -0.00046550       0.00004815       0.00000980       0.00001698       0.00000950      -0.25152281       0.00280726       0.00162077       0.00333761
Au       2.88499567      -0.00177431      17.32850359        1      -0.00048760      -0.00049055      -0.00005778      -0.00001531       0.00000000      -0.00000000      -0.26573025       0.00000000      -0.01221452      -0.00312196
Au       5.76762179       0.00136806      17.41630400        1      -0.00045454      -0.00046550       0.00004815       0.00000980      -0.00001698      -0.00000950      -0.25152281      -0.00280726       0.00162077       0.00333761
Au       1.44096124       2.49936669      17.32850359        1      -0.00048981      -0.00048834      -0.00005778       0.00000766      -0.00001326       0.00000128      -0.26573025      -0.01057808       0.00610726      -0.00312196
Au       4.32903010       2.49936669      17.32850359        1      -0.00048981      -0.00048834      -0.00005778       0.00000766       0.00001326      -0.00000128      -0.26573025       0.01057808       0.00610726      -0.00312196
Au       7.21248917       2.49797066      17.41169692        1      -0.00046193      -0.00047307       0.00003977       0.00000215      -0.00000000       0.00000000      -0.24705099      -0.00000000      -0.00207466      -0.00249045
Au       2.88499567       4.99422296      17.41630400        1      -0.00047098      -0.00044905       0.00004815      -0.00001961       0.00000000       0.00000000      -0.25152281       0.00000000      -0.00324154       0.00333761
Au       5.76955063       4.99721352      17.41169692        1      -0.00047029      -0.00046472       0.00003977      -0.00000108       0.00000186       0.00000483      -0.24705099      -0.00179671       0.00103733      -0.00249045
Au       8.65542771       4.99721352      17.41169692        1      -0.00047029      -0.00046472       0.00003977      -0.00000108      -0.00000186      -0.00000483      -0.24705099       0.00179671       0.00103733      -0.00249045
Hg       2.88499567       1.66565303      19.87500481        0       0.00004786       0.00004786      -0.00000748       0.00000000       0.00000000      -0.00000000      -0.13477872      -0.00000000      -0.00000000       0.03697742
