37
Lattice="8.654987001723343 0.0 0.0 4.327493500861672 7.495438612916525 0.0 0.0 0.0 27.066767294881018" Properties=species:S:1:pos:R:3:tags:I:1:stresses:R:6:energies:R:1:forces:R:3 stress="-0.016302533505821882 -1.9016218177127765e-18 1.6486499486688493e-18 -1.9016218177127765e-18 -0.016302533505821927 8.314960584903094e-18 1.6486499486688493e-18 8.314960584903094e-18 -0.00031487253900850125" energy=-10.99745573210339 free_energy=-10.99745573210339 pbc="T T F"
Au      -0.00000000      -0.00000000       9.66273098        4      -0.00047834      -0.00047834       0.00001310       0.00000000      -0.00000000       0.00000000      -0.24152085       0.00000000      -0.00000000      -0.01047167
Au       2.88535655       0.00004848       9.66334209        4      -0.00047835      -0.00047859       0.00001739       0.00000017       0.00000322       0.00000119      -0.24145653       0.00187580       0.00009885      -0.00353051
Au       5.76963045       0.00004848       9.66334209        4      -0.00047835      -0.00047859       0.00001739       0.00000017      -0.00000322      -0.00000119      -0.24145653      -0.00187580       0.00009885      -0.00353051
Au       1.44272026       2.49876783       9.66334209        4      -0.00047750      -0.00047943       0.00001739       0.00000270       0.00000175       0.00000070      -0.24145653       0.00102351       0.00157507      -0.00353051
Au       4.32749350       2.49847954       9.66505529        4      -0.00047701      -0.00047701       0.00002604      -0.00000000      -0.00000000      -0.00000000      -0.24192159       0.00000000      -0.00000000       0.00984676
Au       7.21226675       2.49876783       9.66334209        4      -0.00047750      -0.00047943       0.00001739       0.00000270      -0.00000175      -0.00000070      -0.24145653      -0.00102351       0.00157507      -0.00353051
Au       2.88485721       4.99662230       9.66334209        4      -0.00047955      -0.00047738       0.00001739      -0.00000287      -0.00000146      -0.00000049      -0.24145653      -0.00085229      -0.00167392      -0.00353051
Au       5.77012979       4.99662230       9.66334209        4      -0.00047955      -0.00047738       0.00001739      -0.00000287       0.00000146       0.00000049      -0.24145653       0.00085229      -0.00167392      -0.00353051
Au       8.65498700       4.99695908       9.66169702        4      -0.00048017      -0.00048017       0.00001223      -0.00000000      -0.00000000      -0.00000000      -0.24083427      -0.00000000       0.00000000      -0.01138417
Au       1.44525703       0.83441954      12.23149357        3      -0.00043914      -0.00044326      -0.00005725       0.00000779       0.00001350       0.00000356      -0.35718141      -0.00021420      -0.00012367      -0.03177605
Au       4.32749350       0.83263209      12.25181016        3      -0.00044102      -0.00043684       0.00000050      -0.00000220       0.00000000       0.00000000      -0.35955264      -0.00000000      -0.00016379       0.01587243
Au       7.20972997       0.83441954      12.23149357        3      -0.00043914      -0.00044326      -0.00005725       0.00000779      -0.00001350      -0.00000356      -0.35718141       0.00021420      -0.00012367      -0.03177605
Au       2.88482729       3.33140326      12.25181016        3      -0.00043789      -0.00043998       0.00000050       0.00000110      -0.00000191      -0.00000181      -0.35955264      -0.00014185       0.00008190       0.01587243
Au       5.77015971       3.33140326      12.25181016        3      -0.00043789      -0.00043998       0.00000050       0.00000110       0.00000191       0.00000181      -0.35955264       0.00014185       0.00008190       0.01587243
Au       8.65498700       3.33606926      12.23613573        3      -0.00044047      -0.00046084      -0.00003429       0.00002285      -0.00000000       0.00000000      -0.35563155      -0.00000000      -0.00504238      -0.00815900
Au       4.32749350       5.82659954      12.23149357        3      -0.00044531      -0.00043709      -0.00005725      -0.00001558       0.00000000       0.00000000      -0.35718141      -0.00000000       0.00024734      -0.03177605
Au       7.21661422       5.82740399      12.23613573        3      -0.00045575      -0.00044556      -0.00003429      -0.00001143       0.00001979       0.00000882      -0.35563155      -0.00436683       0.00252119      -0.00815900
Au      10.09335978       5.82740399      12.23613573        3      -0.00045575      -0.00044556      -0.00003429      -0.00001143      -0.00001979      -0.00000882      -0.35563155       0.00436683       0.00252119      -0.00815900
Au      -0.00000000       1.67934325      14.73391954        2      -0.00043435      -0.00046360      -0.00010050       0.00005698      -0.00000000       0.00000000      -0.35251047       0.00000000      -0.00562566       0.01630233
Au       2.88277483       1.66437082      14.82725066        2      -0.00042566      -0.00043355       0.00000853      -0.00000731      -0.00001267       0.00000683      -0.36164653      -0.00086284      -0.00049816       0.00661952
Au       5.77221217       1.66437082      14.82725066        2      -0.00042566      -0.00043355       0.00000853      -0.00000731       0.00001267      -0.00000683      -0.36164653       0.00086284      -0.00049816       0.00661952
Au       1.44328524       4.16367795      14.82778913        2      -0.00044148      -0.00045304       0.00001254      -0.00000396       0.00000687      -0.00001001      -0.35775355      -0.00227462       0.00131325       0.00399394
Au       4.32749350       4.16669697      14.82725066        2      -0.00043750      -0.00042172       0.00000853       0.00001463       0.00000000       0.00000000      -0.36164653       0.00000000       0.00099633       0.00661952
Au       7.21170176       4.16367795      14.82778913        2      -0.00044148      -0.00045304       0.00001254      -0.00000396      -0.00000687       0.00001001      -0.35775355       0.00227462       0.00131325       0.00399394
Au       2.87313959       6.65576699      14.73391954        2      -0.00045629      -0.00044166      -0.00010050      -0.00002849      -0.00004935      -0.00001267      -0.35251047       0.00487197       0.00281283       0.01630233
Au       5.78184742       6.65576699      14.73391954        2      -0.00045629      -0.00044166      -0.00010050      -0.00002849       0.00004935       0.00001267      -0.35251047      -0.00487197       0.00281283       0.01630233
Au       8.65498700       6.66352132      14.82778913        2      -0.00045882      -0.00043570       0.00001254       0.00000793       0.00000000      -0.00000000      -0.35775355      -0.00000000      -0.00262651       0.00399394
Au       0.00000000       0.00000000      17.13417889        1      -0.00048540      -0.00048540      -0.00036813       0.00000000       0.00000000      -0.00000000      -0.25434143      -0.00000000       0.00000000      -0.03409951
Au       2.87708637      -0.00117323      17.42422210        1      -0.00042258      -0.00048128       0.00006716       0.00000672      -0.00002372       0.00000238      -0.25486841      -0.00005059       0.00017462       0.00247405
Au       5.77790063      -0.00117323      17.42422210        1      -0.00042258      -0.00048128       0.00006716       0.00000672       0.00002372      -0.00000238      -0.25486841       0.00005059       0.00017462       0.00247405
Au       1.43752714       2.49221651      17.42422210        1      -0.00046455      -0.00043932       0.00006716      -0.00002390      -0.00000604       0.00002661      -0.25486841       0.00012593      -0.00013112       0.00247405
Au       4.32749350       2.49847954      17.40284809        1      -0.00045334      -0.00045334       0.00002082       0.00000000       0.00000000      -0.00000000      -0.24807490      -0.00000000       0.00000000      -0.00312074
Au       7.21745986       2.49221651      17.42422210        1      -0.00046455      -0.00043932       0.00006716      -0.00002390       0.00000604      -0.00002661      -0.25486841      -0.00012593      -0.00013112       0.00247405
Au       2.88793426       5.00439534      17.42422210        1      -0.00046867      -0.00043519       0.00006716       0.00001718       0.00001768       0.00002423      -0.25486841       0.00017652      -0.00004350       0.00247405
Au       5.76705274       5.00439534      17.42422210        1      -0.00046867      -0.00043519       0.00006716       0.00001718      -0.00001768      -0.00002423      -0.25486841      -0.00017652      -0.00004350       0.00247405
Au       8.65498700       4.99695908      17.40321987        1      -0.00046264      -0.00046264       0.00001934       0.00000000      -0.00000000       0.00000000      -0.24584000      -0.00000000       0.00000000      -0.00044057
Hg       0.00000000      -0.00000000      20.03391192        0       0.00008665       0.00008665      -0.00003415       0.00000000       0.00000000       0.00000000      -0.11414465      -0.00000000      -0.00000000       0.04744912
