Au Hg
 1.0000000000000000
     8.6549870017233435    0.0000000000000000    0.0000000000000000
     4.3274935008616717    7.4954386129165247    0.0000000000000000
     0.0000000000000000    0.0000000000000000   27.0667672948810178
 Au  Hg 
  36   1
Selective dynamics
Direct
  0.0000000000000000  0.0000000000000000  0.3694567545157579   F   F   F
  0.3333333333333333  0.0000000000000000  0.3694567545157579   F   F   F
  0.6666666666666666  0.0000000000000000  0.3694567545157579   F   F   F
  0.0000000000000000  0.3333333333333333  0.3694567545157579   F   F   F
  0.3333333333333334  0.3333333333333333  0.3694567545157579   F   F   F
  0.6666666666666666  0.3333333333333333  0.3694567545157579   F   F   F
  0.0000000000000000  0.6666666666666666  0.3694567545157579   F   F   F
  0.3333333333333333  0.6666666666666666  0.3694567545157579   F   F   F
  0.6666666666666667  0.6666666666666666  0.3694567545157579   F   F   F
  0.1116899544445969  0.1105025736222801  0.4638135380956187   T   T   T
  0.4447991863760997  0.1104016272478006  0.4648472680775878   T   T   T
  0.7778074719331241  0.1105025736222805  0.4638135380956184   T   T   T
  0.1109177193367850  0.4449247008561397  0.4645150960393349   T   T   T
  0.4441575798070753  0.4449247008561399  0.4645150960393351   T   T   T
  0.7776663750503588  0.4446672498992822  0.4634439334189657   T   T   T
  0.1110407317733204  0.7779185364533593  0.4657859094869193   T   T   T
  0.4438749546727466  0.7788196686682993  0.4650147881804350   T   T   T
  0.7773053766589553  0.7788196686682989  0.4650147881804350   T   T   T
 -0.1109199008016678  0.2218398016033343  0.5568477650733197   T   T   T
  0.2213338590300331  0.2227657134107083  0.5582308720777187   T   T   T
  0.5559004275592583  0.2227657134107083  0.5582308720777186   T   T   T
 -0.1112124296802778  0.5550936111053535  0.5585060031143486   T   T   T
  0.2223990120220923  0.5552019759558153  0.5589908494213749   T   T   T
  0.5561188185749228  0.5550936111053543  0.5585060031143489   T   T   T
 -0.1108504597219118  0.8891764464416583  0.5596217857680535   T   T   T
  0.2216740132802530  0.8891764464416601  0.5596217857680535   T   T   T
  0.5554613303792442  0.8890773392415118  0.5589263694461095   T   T   T
  0.0004136518152655 -0.0008273036305305  0.6566422358331686   T   T   T
  0.3326761714392117  0.0006618601977909  0.6535988938601657   T   T   T
  0.6666619683629991  0.0006618601977903  0.6535988938601657   T   T   T
  0.0012614522697195  0.3329844557634052  0.6513452894825573   T   T   T
  0.3334805137446102  0.3330389725107795  0.6534082197956032   T   T   T
  0.6657540919668749  0.3329844557634054  0.6513452894825573   T   T   T
 -0.0001173063685806  0.6658097256068702  0.6538663391808084   T   T   T
  0.3343075807617102  0.6658097256068706  0.6538663391808084   T   T   T
  0.6662934556120773  0.6674130887758455  0.6553483415612342   T   T   T
 -0.1666260447084161  0.3332520894168324  0.7506203219945773   T   T   T
