Au Hg
 1.0000000000000000
     8.6549870017233435    0.0000000000000000    0.0000000000000000
     4.3274935008616717    7.4954386129165247    0.0000000000000000
     0.0000000000000000    0.0000000000000000   27.0667672948810178
 Au  Hg 
  36   1
Selective dynamics
Direct
  0.0000000000000000  0.0000000000000000  0.3694567545157579   F   F   F
  0.3333333333333333  0.0000000000000000  0.3694567545157579   F   F   F
  0.6666666666666666  0.0000000000000000  0.3694567545157579   F   F   F
  0.0000000000000000  0.3333333333333333  0.3694567545157579   F   F   F
  0.3333333333333334  0.3333333333333333  0.3694567545157579   F   F   F
  0.6666666666666666  0.3333333333333333  0.3694567545157579   F   F   F
  0.0000000000000000  0.6666666666666666  0.3694567545157579   F   F   F
  0.3333333333333333  0.6666666666666666  0.3694567545157579   F   F   F
  0.6666666666666667  0.6666666666666666  0.3694567545157579   F   F   F
  0.1114658530427663  0.1104016272478008  0.4648472680775880   T   T   T
  0.4444741385997900  0.1105025736222795  0.4638135380956188   T   T   T
  0.7783566211112631  0.1105025736222792  0.4638135380956188   T   T   T
  0.1108242464737420  0.4449247008561397  0.4645150960393357   T   T   T
  0.4443330417170258  0.4446672498992816  0.4634439334189654   T   T   T
  0.7775843860034516  0.4449247008561394  0.4645150960393357   T   T   T
  0.1105416213394117  0.7788196686682983  0.4650147881804350   T   T   T
  0.4439720433256205  0.7788196686682990  0.4650147881804350   T   T   T
  0.7777073984399874  0.7779185364533585  0.4657859094869196   T   T   T
 -0.1119994743033003  0.2227657134107080  0.5582308720777200   T   T   T
  0.2225670942259256  0.2227657134107081  0.5582308720777193   T   T   T
  0.5557467658649996  0.2218398016033340  0.5568477650733187   T   T   T
 -0.1109343213112410  0.5552019759558160  0.5589908494213746   T   T   T
  0.2227854852415893  0.5550936111053548  0.5585060031143479   T   T   T
  0.5554542369863895  0.5550936111053544  0.5585060031143481   T   T   T
 -0.1116593200530802  0.8891764464416606  0.5596217857680544   T   T   T
  0.2221279970459106  0.8890773392415121  0.5589263694461086   T   T   T
  0.5558162069447531  0.8891764464416602  0.5596217857680543   T   T   T
 -0.0006571618941217  0.0006618601977911  0.6535988938601690   T   T   T
  0.3333286350296638  0.0006618601977913  0.6535988938601682   T   T   T
  0.6670803184819315 -0.0008273036305298  0.6566422358331705   T   T   T
  0.0001471804112771  0.3330389725107794  0.6534082197956035   T   T   T
  0.3324207586335444  0.3329844557634056  0.6513452894825582   T   T   T
  0.6679281189363840  0.3329844557634059  0.6513452894825582   T   T   T
  0.0009742474283764  0.6658097256068720  0.6538663391808062   T   T   T
  0.3329601222787434  0.6674130887758463  0.6553483415612281   T   T   T
  0.6665493602980836  0.6658097256068721  0.6538663391808062   T   T   T
  0.5000406219582504  0.3332520894168325  0.7506203219945792   T   T   T
