Au Hg
 1.0000000000000000
     8.6549870017233435    0.0000000000000000    0.0000000000000000
     4.3274935008616717    7.4954386129165247    0.0000000000000000
     0.0000000000000000    0.0000000000000000   27.0667672948810178
 Au  Hg 
  36   1
Selective dynamics
Direct
  0.0000000000000000  0.0000000000000000  0.3694567545157579   F   F   F
  0.3333333333333333  0.0000000000000000  0.3694567545157579   F   F   F
  0.6666666666666666  0.0000000000000000  0.3694567545157579   F   F   F
  0.0000000000000000  0.3333333333333333  0.3694567545157579   F   F   F
  0.3333333333333334  0.3333333333333333  0.3694567545157579   F   F   F
  0.6666666666666666  0.3333333333333333  0.3694567545157579   F   F   F
  0.0000000000000000  0.6666666666666666  0.3694567545157579   F   F   F
  0.3333333333333333  0.6666666666666666  0.3694567545157579   F   F   F
  0.6666666666666667  0.6666666666666666  0.3694567545157579   F   F   F
  0.1105416213394121  0.1106387099922879  0.4650147881804343   T   T   T
  0.4443330417170254  0.1109997083836918  0.4634439334189658   T   T   T
  0.7783566211112631  0.1111408052664562  0.4638135380956189   T   T   T
  0.1108242464737415  0.4442510526701169  0.4645150960393357   T   T   T
  0.4444741385997898  0.4450232877779290  0.4638135380956184   T   T   T
  0.7777073984399859  0.4443740651066525  0.4657859094869206   T   T   T
  0.1114658530427657  0.7781325197094322  0.4648472680775880   T   T   T
  0.4439720433256222  0.7772082880060771  0.4650147881804345   T   T   T
  0.7775843860034500  0.7774909131404074  0.4645150960393346   T   T   T
 -0.1116593200530785  0.2224828736114185  0.5596217857680549   T   T   T
  0.2227854852415910  0.2221209036530541  0.5585060031143486   T   T   T
  0.5557467658649994  0.2224134325316652  0.5568477650733193   T   T   T
 -0.1109343213112407  0.5557323453554242  0.5589908494213760   T   T   T
  0.2225670942259256  0.5546671923633646  0.5582308720777187   T   T   T
  0.5558162069447544  0.5550073466135861  0.5596217857680543   T   T   T
 -0.1119994743032985  0.8892337608925903  0.5582308720777187   T   T   T
  0.2221279970459108  0.8887946637125753  0.5589263694461079   T   T   T
  0.5554542369863898  0.8894521519082541  0.5585060031143486   T   T   T
 -0.0006571618941209 -0.0000046983036697  0.6535988938601662   T   T   T
  0.3329601222787445 -0.0003732110545899  0.6553483415612271   T   T   T
  0.6679281189363847 -0.0009125746997900  0.6513452894825582   T   T   T
  0.0009742474283767  0.3332160269647515  0.6538663391808101   T   T   T
  0.3324207586335434  0.3345947856030507  0.6513452894825582   T   T   T
  0.6670803184819307  0.3337469851485971  0.6566422358331675   T   T   T
  0.0001471804112776  0.6668138470779431  0.6534082197956029   T   T   T
  0.3333286350296646  0.6660095047725449  0.6535988938601662   T   T   T
  0.6665493602980846  0.6676409140950431  0.6538663391808101   T   T   T
  0.5000406219582501  0.1667072886249159  0.7506203219945792   T   T   T
