Au Hg
 1.0000000000000000
     8.6549870017233435    0.0000000000000000    0.0000000000000000
     4.3274935008616717    7.4954386129165247    0.0000000000000000
     0.0000000000000000    0.0000000000000000   27.0667672948810178
 Au  Hg 
  36   1
Selective dynamics
Direct
  0.0000000000000000  0.0000000000000000  0.3694567545157579   F   F   F
  0.3333333333333333  0.0000000000000000  0.3694567545157579   F   F   F
  0.6666666666666666  0.0000000000000000  0.3694567545157579   F   F   F
  0.0000000000000000  0.3333333333333333  0.3694567545157579   F   F   F
  0.3333333333333334  0.3333333333333333  0.3694567545157579   F   F   F
  0.6666666666666666  0.3333333333333333  0.3694567545157579   F   F   F
  0.0000000000000000  0.6666666666666666  0.3694567545157579   F   F   F
  0.3333333333333333  0.6666666666666666  0.3694567545157579   F   F   F
  0.6666666666666667  0.6666666666666666  0.3694567545157579   F   F   F
  0.1112518697866942  0.1110407317733191  0.4657859094869197   T   T   T
  0.4438359069556121  0.1116899544445968  0.4638135380956180   T   T   T
  0.7782580341894736  0.1109177193367833  0.4645150960393342   T   T   T
  0.1121530020016328  0.4438749546727455  0.4650147881804367   T   T   T
  0.4437349605811332  0.4447991863760997  0.4648472680775887   T   T   T
  0.7782580341894721  0.4441575798070752  0.4645150960393354   T   T   T
  0.1121530020016327  0.7773053766589535  0.4650147881804356   T   T   T
  0.4438359069556129  0.7778074719331233  0.4638135380956190   T   T   T
  0.7780005832326163  0.7776663750503578  0.4634439334189649   T   T   T
 -0.1114646907108492  0.2223990120220913  0.5589908494213738   T   T   T
  0.2225097797749950  0.2216740132802530  0.5596217857680567   T   T   T
  0.5560990467440404  0.2213338590300334  0.5582308720777182   T   T   T
 -0.1115730555613111  0.5561188185749224  0.5585060031143483   T   T   T
  0.2224106725748463  0.5554613303792437  0.5589263694461138   T   T   T
  0.5560990467440410  0.5559004275592585  0.5582308720777187   T   T   T
 -0.1115730555613114  0.8887875703197224  0.5585060031143479   T   T   T
  0.2225097797749958  0.8891495402780847  0.5596217857680559   T   T   T
  0.5551731349366690  0.8890800991983329  0.5568477650733190   T   T   T
 -0.0008569410597972 -0.0001173063685800  0.6538663391808069   T   T   T
  0.3325060297028021  0.0004136518152660  0.6566422358331716   T   T   T
  0.6663177890967381  0.0012614522697185  0.6513452894825564   T   T   T
 -0.0008569410597979  0.3343075807617115  0.6538663391808069   T   T   T
  0.3339951935311237  0.3326761714392114  0.6535988938601719   T   T   T
  0.6663723058441119  0.3334805137446104  0.6534082197955982   T   T   T
  0.0007464221091765  0.6662934556120786  0.6553483415612326   T   T   T
  0.3339951935311235  0.6666619683629980  0.6535988938601719   T   T   T
  0.6663177890967389  0.6657540919668763  0.6513452894825572   T   T   T
  0.6665854227501667 -0.1666260447084157  0.7506203219945777   T   T   T
