Au Hg
 1.0000000000000000
     8.6549870017233435    0.0000000000000000    0.0000000000000000
     4.3274935008616717    7.4954386129165247    0.0000000000000000
     0.0000000000000000    0.0000000000000000   27.0667672948810178
 Au  Hg 
  36   1
Selective dynamics
Direct
  0.0000000000000000  0.0000000000000000  0.3694567545157579   F   F   F
  0.3333333333333333  0.0000000000000000  0.3694567545157579   F   F   F
  0.6666666666666666  0.0000000000000000  0.3694567545157579   F   F   F
  0.0000000000000000  0.3333333333333333  0.3694567545157579   F   F   F
  0.3333333333333334  0.3333333333333333  0.3694567545157579   F   F   F
  0.6666666666666666  0.3333333333333333  0.3694567545157579   F   F   F
  0.0000000000000000  0.6666666666666666  0.3694567545157579   F   F   F
  0.3333333333333333  0.6666666666666666  0.3694567545157579   F   F   F
  0.6666666666666667  0.6666666666666666  0.3694567545157579   F   F   F
  0.1106387099922875  0.1121530020016334  0.4650147881804353   T   T   T
  0.4443740651066523  0.1112518697866952  0.4657859094869200   T   T   T
  0.7772082880060798  0.1121530020016337  0.4650147881804353   T   T   T
  0.1111408052664570  0.4438359069556133  0.4638135380956177   T   T   T
  0.4450232877779300  0.4438359069556136  0.4638135380956178   T   T   T
  0.7781325197094324  0.4437349605811350  0.4648472680775879   T   T   T
  0.1109997083836922  0.7780005832326157  0.4634439334189655   T   T   T
  0.4442510526701169  0.7782580341894751  0.4645150960393358   T   T   T
  0.7774909131404097  0.7782580341894746  0.4645150960393359   T   T   T
 -0.1112053362874232  0.2224106725748463  0.5589263694461107   T   T   T
  0.2224828736114192  0.2225097797749951  0.5596217857680543   T   T   T
  0.5550073466135855  0.2225097797749944  0.5596217857680537   T   T   T
 -0.1107662391074072  0.5560990467440415  0.5582308720777195   T   T   T
  0.2224134325316657  0.5551731349366685  0.5568477650733192   T   T   T
  0.5546671923633660  0.5560990467440416  0.5582308720777179   T   T   T
 -0.1105478480917430  0.8884269444386885  0.5585060031143486   T   T   T
  0.2221209036530548  0.8884269444386885  0.5585060031143486   T   T   T
  0.5557323453554260  0.8885353092891480  0.5589908494213740   T   T   T
 -0.0003732110545906  0.0007464221091808  0.6553483415612343   T   T   T
  0.3332160269647521 -0.0008569410597959  0.6538663391808056   T   T   T
  0.6676409140950430 -0.0008569410597961  0.6538663391808056   T   T   T
 -0.0000046983036693  0.3339951935311248  0.6535988938601693   T   T   T
  0.3337469851485984  0.3325060297028032  0.6566422358331712   T   T   T
  0.6660095047725444  0.3339951935311246  0.6535988938601639   T   T   T
 -0.0009125746997900  0.6663177890967388  0.6513452894825585   T   T   T
  0.3345947856030509  0.6663177890967388  0.6513452894825571   T   T   T
  0.6668138470779432  0.6663723058441133  0.6534082197956000   T   T   T
  0.1667072886249179  0.6665854227501641  0.7506203219945791   T   T   T
