Au Hg
 1.0000000000000000
     8.6549870017233435    0.0000000000000000    0.0000000000000000
     4.3274935008616717    7.4954386129165247    0.0000000000000000
     0.0000000000000000    0.0000000000000000   27.0667672948810178
 Au  Hg 
  36   1
Selective dynamics
Direct
  0.0000000000000000  0.0000000000000000  0.3694567545157579   F   F   F
  0.3333333333333333  0.0000000000000000  0.3694567545157579   F   F   F
  0.6666666666666666  0.0000000000000000  0.3694567545157579   F   F   F
  0.0000000000000000  0.3333333333333333  0.3694567545157579   F   F   F
  0.3333333333333334  0.3333333333333333  0.3694567545157579   F   F   F
  0.6666666666666666  0.3333333333333333  0.3694567545157579   F   F   F
  0.0000000000000000  0.6666666666666666  0.3694567545157579   F   F   F
  0.3333333333333333  0.6666666666666666  0.3694567545157579   F   F   F
  0.6666666666666667  0.6666666666666666  0.3694567545157579   F   F   F
  0.1113339165659477  0.1109997083836932  0.4634439334189658   T   T   T
  0.4454863353349653  0.1106387099922883  0.4650147881804361   T   T   T
  0.7771692402889473  0.1111408052664568  0.4638135380956181   T   T   T
  0.1115913675228060  0.4442510526701183  0.4645150960393353   T   T   T
  0.4445852031200274  0.4443740651066528  0.4657859094869193   T   T   T
  0.7771692402889471  0.4450232877779299  0.4638135380956181   T   T   T
  0.1115913675228070  0.7774909131404085  0.4645150960393353   T   T   T
  0.4454863353349657  0.7772082880060794  0.4650147881804361   T   T   T
  0.7770682939144682  0.7781325197094322  0.4648472680775880   T   T   T
 -0.1114935317299983  0.2224134325316666  0.5568477650733196   T   T   T
  0.2217602777720215  0.2221209036530559  0.5585060031143498   T   T   T
  0.5558431131083262  0.2224828736114202  0.5596217857680542   T   T   T
 -0.1105676199226238  0.5546671923633659  0.5582308720777190   T   T   T
  0.2218686426224825  0.5557323453554264  0.5589908494213741   T   T   T
  0.5558431131083276  0.5550073466135865  0.5596217857680552   T   T   T
 -0.1105676199226250  0.8892337608925924  0.5582308720777190   T   T   T
  0.2217602777720226  0.8894521519082563  0.5585060031143498   T   T   T
  0.5557440059081807  0.8887946637125762  0.5589263694461095   T   T   T
 -0.0003488775699275 -0.0009125746997898  0.6513452894825587   T   T   T
  0.3340797554425132 -0.0003732110545893  0.6553483415612301   T   T   T
  0.6673285268644583 -0.0000046983036695  0.6535988938601680   T   T   T
 -0.0003488775699275  0.3345947856030517  0.6513452894825587   T   T   T
  0.3324763922735388  0.3332160269647523  0.6538663391808068   T   T   T
  0.6658393630361366  0.3337469851485980  0.6566422358331707   T   T   T
 -0.0002943608225531  0.6668138470779431  0.6534082197956043   T   T   T
  0.3324763922735372  0.6676409140950448  0.6538663391808069   T   T   T
  0.6673285268644585  0.6660095047725444  0.6535988938601680   T   T   T
 -0.0000812439165011  0.1667072886249171  0.7506203219945802   T   T   T
