Au Hg
 1.0000000000000000
     8.6549870017233435    0.0000000000000000    0.0000000000000000
     4.3274935008616717    7.4954386129165247    0.0000000000000000
     0.0000000000000000    0.0000000000000000   27.0667672948810178
 Au  Hg 
  36   1
Selective dynamics
Direct
  0.0000000000000000  0.0000000000000000  0.3694567545157579   F   F   F
  0.3333333333333333  0.0000000000000000  0.3694567545157579   F   F   F
  0.6666666666666666  0.0000000000000000  0.3694567545157579   F   F   F
  0.0000000000000000  0.3333333333333333  0.3694567545157579   F   F   F
  0.3333333333333334  0.3333333333333333  0.3694567545157579   F   F   F
  0.6666666666666666  0.3333333333333333  0.3694567545157579   F   F   F
  0.0000000000000000  0.6666666666666666  0.3694567545157579   F   F   F
  0.3333333333333333  0.6666666666666666  0.3694567545157579   F   F   F
  0.6666666666666667  0.6666666666666666  0.3694567545157579   F   F   F
  0.1106387099922882  0.1105416213394127  0.4650147881804352   T   T   T
  0.4442510526701185  0.1108242464737408  0.4645150960393348   T   T   T
  0.7781325197094333  0.1114658530427653  0.4648472680775884   T   T   T
  0.1109997083836926  0.4443330417170246  0.4634439334189658   T   T   T
  0.4450232877779291  0.4444741385997894  0.4638135380956184   T   T   T
  0.7772082880060796  0.4439720433256209  0.4650147881804352   T   T   T
  0.1111408052664566  0.7783566211112631  0.4638135380956186   T   T   T
  0.4443740651066538  0.7777073984399848  0.4657859094869202   T   T   T
  0.7774909131404074  0.7775843860034509  0.4645150960393348   T   T   T
 -0.1112053362874224  0.2221279970459095  0.5589263694461094   T   T   T
  0.2221209036530562  0.2227854852415891  0.5585060031143478   T   T   T
  0.5546671923633670  0.2225670942259241  0.5582308720777196   T   T   T
 -0.1105478480917422  0.5554542369863876  0.5585060031143478   T   T   T
  0.2224134325316660  0.5557467658649994  0.5568477650733197   T   T   T
  0.5550073466135870  0.5558162069447534  0.5596217857680542   T   T   T
 -0.1107662391074067  0.8880005256966987  0.5582308720777196   T   T   T
  0.2224828736114214  0.8883406799469192  0.5596217857680549   T   T   T
  0.5557323453554257  0.8890656786887581  0.5589908494213746   T   T   T
 -0.0000046983036693 -0.0006571618941228  0.6535988938601655   T   T   T
  0.3332160269647515  0.0009742474283768  0.6538663391808067   T   T   T
  0.6668138470779423  0.0001471804112762  0.6534082197956044   T   T   T
 -0.0003732110545905  0.3329601222787434  0.6553483415612289   T   T   T
  0.3345947856030504  0.3324207586335434  0.6513452894825593   T   T   T
  0.6660095047725442  0.3333286350296632  0.6535988938601655   T   T   T
 -0.0009125746997899  0.6679281189363829  0.6513452894825593   T   T   T
  0.3337469851485966  0.6670803184819311  0.6566422358331687   T   T   T
  0.6676409140950416  0.6665493602980859  0.6538663391808067   T   T   T
  0.1667072886249196  0.5000406219582513  0.7506203219945823   T   T   T
