Au Hg
 1.0000000000000000
     8.6549870017233435    0.0000000000000000    0.0000000000000000
     4.3274935008616717    7.4954386129165247    0.0000000000000000
     0.0000000000000000    0.0000000000000000   27.0667672948810178
 Au  Hg 
  36   1
Selective dynamics
Direct
  0.0000000000000000  0.0000000000000000  0.3694567545157579   F   F   F
  0.3333333333333333  0.0000000000000000  0.3694567545157579   F   F   F
  0.6666666666666666  0.0000000000000000  0.3694567545157579   F   F   F
  0.0000000000000000  0.3333333333333333  0.3694567545157579   F   F   F
  0.3333333333333334  0.3333333333333333  0.3694567545157579   F   F   F
  0.6666666666666666  0.3333333333333333  0.3694567545157579   F   F   F
  0.0000000000000000  0.6666666666666666  0.3694567545157579   F   F   F
  0.3333333333333333  0.6666666666666666  0.3694567545157579   F   F   F
  0.6666666666666667  0.6666666666666666  0.3694567545157579   F   F   F
  0.1121530020016337  0.1106387099922882  0.4650147881804351   T   T   T
  0.4438359069556140  0.1111408052664567  0.4638135380956180   T   T   T
  0.7780005832326164  0.1109997083836923  0.4634439334189658   T   T   T
  0.1112518697866957  0.4443740651066526  0.4657859094869193   T   T   T
  0.4438359069556140  0.4450232877779297  0.4638135380956180   T   T   T
  0.7782580341894750  0.4442510526701182  0.4645150960393357   T   T   T
  0.1121530020016332  0.7772082880060784  0.4650147881804351   T   T   T
  0.4437349605811355  0.7781325197094330  0.4648472680775889   T   T   T
  0.7782580341894734  0.7774909131404082  0.4645150960393357   T   T   T
 -0.1115730555613121  0.2221209036530549  0.5585060031143485   T   T   T
  0.2225097797749930  0.2224828736114203  0.5596217857680538   T   T   T
  0.5551731349366671  0.2224134325316658  0.5568477650733193   T   T   T
 -0.1114646907108512  0.5557323453554258  0.5589908494213744   T   T   T
  0.2225097797749939  0.5550073466135863  0.5596217857680542   T   T   T
  0.5560990467440434  0.5546671923633649  0.5582308720777199   T   T   T
 -0.1115730555613123  0.8894521519082574  0.5585060031143485   T   T   T
  0.2224106725748472  0.8887946637125762  0.5589263694461090   T   T   T
  0.5560990467440413  0.8892337608925917  0.5582308720777193   T   T   T
  0.0007464221091793 -0.0003732110545900  0.6553483415612297   T   T   T
  0.3339951935311242 -0.0000046983036695  0.6535988938601659   T   T   T
  0.6663177890967400 -0.0009125746997897  0.6513452894825587   T   T   T
 -0.0008569410597962  0.3332160269647523  0.6538663391808063   T   T   T
  0.3325060297028041  0.3337469851485981  0.6566422358331702   T   T   T
  0.6663177890967391  0.3345947856030510  0.6513452894825587   T   T   T
 -0.0008569410597958  0.6676409140950424  0.6538663391808063   T   T   T
  0.3339951935311242  0.6660095047725443  0.6535988938601680   T   T   T
  0.6663723058441147  0.6668138470779431  0.6534082197956050   T   T   T
  0.6665854227501669  0.1667072886249168  0.7506203219945802   T   T   T
