Au Hg
 1.0000000000000000
     8.6549870017233435    0.0000000000000000    0.0000000000000000
     4.3274935008616717    7.4954386129165247    0.0000000000000000
     0.0000000000000000    0.0000000000000000   27.0667672948810178
 Au  Hg 
  36   1
Selective dynamics
Direct
  0.0000000000000000  0.0000000000000000  0.3694567545157579   F   F   F
  0.3333333333333333  0.0000000000000000  0.3694567545157579   F   F   F
  0.6666666666666666  0.0000000000000000  0.3694567545157579   F   F   F
  0.0000000000000000  0.3333333333333333  0.3694567545157579   F   F   F
  0.3333333333333334  0.3333333333333333  0.3694567545157579   F   F   F
  0.6666666666666666  0.3333333333333333  0.3694567545157579   F   F   F
  0.0000000000000000  0.6666666666666666  0.3694567545157579   F   F   F
  0.3333333333333333  0.6666666666666666  0.3694567545157579   F   F   F
  0.6666666666666667  0.6666666666666666  0.3694567545157579   F   F   F
  0.1116899544445964  0.1105025736222800  0.4638135380956184   T   T   T
  0.4447991863760995  0.1104016272478009  0.4648472680775880   T   T   T
  0.7778074719331232  0.1105025736222802  0.4638135380956178   T   T   T
  0.1109177193367841  0.4449247008561407  0.4645150960393348   T   T   T
  0.4441575798070752  0.4449247008561401  0.4645150960393348   T   T   T
  0.7776663750503593  0.4446672498992812  0.4634439334189659   T   T   T
  0.1110407317733192  0.7779185364533615  0.4657859094869189   T   T   T
  0.4438749546727465  0.7788196686682994  0.4650147881804353   T   T   T
  0.7773053766589547  0.7788196686682984  0.4650147881804355   T   T   T
 -0.1109199008016664  0.2218398016033330  0.5568477650733192   T   T   T
  0.2213338590300336  0.2227657134107070  0.5582308720777173   T   T   T
  0.5559004275592603  0.2227657134107074  0.5582308720777173   T   T   T
 -0.1112124296802767  0.5550936111053534  0.5585060031143487   T   T   T
  0.2223990120220925  0.5552019759558150  0.5589908494213729   T   T   T
  0.5561188185749226  0.5550936111053543  0.5585060031143487   T   T   T
 -0.1108504597219125  0.8891764464416603  0.5596217857680552   T   T   T
  0.2216740132802531  0.8891764464416603  0.5596217857680547   T   T   T
  0.5554613303792437  0.8890773392415126  0.5589263694461089   T   T   T
  0.0004136518152654 -0.0008273036305305  0.6566422358331750   T   T   T
  0.3326761714392116  0.0006618601977907  0.6535988938601636   T   T   T
  0.6666619683629972  0.0006618601977908  0.6535988938601658   T   T   T
  0.0012614522697177  0.3329844557634054  0.6513452894825582   T   T   T
  0.3334805137446102  0.3330389725107795  0.6534082197955998   T   T   T
  0.6657540919668776  0.3329844557634047  0.6513452894825582   T   T   T
 -0.0001173063685799  0.6658097256068700  0.6538663391808071   T   T   T
  0.3343075807617109  0.6658097256068700  0.6538663391808078   T   T   T
  0.6662934556120773  0.6674130887758455  0.6553483415612295   T   T   T
 -0.1666260447084161  0.3332520894168325  0.7506203219945797   T   T   T
