Au Hg
 1.0000000000000000
     8.6549870017233435    0.0000000000000000    0.0000000000000000
     4.3274935008616717    7.4954386129165247    0.0000000000000000
     0.0000000000000000    0.0000000000000000   27.0667672948810178
 Au  Hg 
  36   1
Selective dynamics
Direct
  0.0000000000000000  0.0000000000000000  0.3694567545157579   F   F   F
  0.3333333333333333  0.0000000000000000  0.3694567545157579   F   F   F
  0.6666666666666666  0.0000000000000000  0.3694567545157579   F   F   F
  0.0000000000000000  0.3333333333333333  0.3694567545157579   F   F   F
  0.3333333333333334  0.3333333333333333  0.3694567545157579   F   F   F
  0.6666666666666666  0.3333333333333333  0.3694567545157579   F   F   F
  0.0000000000000000  0.6666666666666666  0.3694567545157579   F   F   F
  0.3333333333333333  0.6666666666666666  0.3694567545157579   F   F   F
  0.6666666666666667  0.6666666666666666  0.3694567545157579   F   F   F
  0.1110407317733183  0.1110407317733200  0.4657859094869198   T   T   T
  0.4441575798070750  0.1109177193367847  0.4645150960393352   T   T   T
  0.7778074719331227  0.1116899544445965  0.4638135380956184   T   T   T
  0.1109177193367839  0.4441575798070759  0.4645150960393352   T   T   T
  0.4447991863760998  0.4447991863760997  0.4648472680775872   T   T   T
  0.7773053766589538  0.4438749546727461  0.4650147881804349   T   T   T
  0.1116899544445959  0.7778074719331223  0.4638135380956180   T   T   T
  0.4438749546727447  0.7773053766589550  0.4650147881804349   T   T   T
  0.7776663750503593  0.7776663750503593  0.4634439334189647   T   T   T
 -0.1108504597219142  0.2216740132802528  0.5596217857680540   T   T   T
  0.2223990120220909  0.2223990120220909  0.5589908494213746   T   T   T
  0.5559004275592582  0.2213338590300328  0.5582308720777183   T   T   T
 -0.1112124296802790  0.5561188185749228  0.5585060031143483   T   T   T
  0.2213338590300329  0.5559004275592579  0.5582308720777185   T   T   T
  0.5554613303792435  0.5554613303792431  0.5589263694461084   T   T   T
 -0.1109199008016671  0.8890800991983311  0.5568477650733193   T   T   T
  0.2216740132802521  0.8891495402780871  0.5596217857680540   T   T   T
  0.5561188185749222  0.8887875703197217  0.5585060031143483   T   T   T
  0.0004136518152659  0.0004136518152649  0.6566422358331733   T   T   T
  0.3343075807617111 -0.0001173063685813  0.6538663391808086   T   T   T
  0.6657540919668758  0.0012614522697182  0.6513452894825563   T   T   T
 -0.0001173063685811  0.3343075807617105  0.6538663391808086   T   T   T
  0.3334805137446107  0.3334805137446093  0.6534082197956000   T   T   T
  0.6666619683629977  0.3326761714392107  0.6535988938601665   T   T   T
  0.0012614522697176  0.6657540919668763  0.6513452894825563   T   T   T
  0.3326761714392110  0.6666619683629965  0.6535988938601665   T   T   T
  0.6662934556120752  0.6662934556120762  0.6553483415612310   T   T   T
  0.8333739552915828 -0.1666260447084160  0.7506203219945772   T   T   T
