Au Hg
 1.0000000000000000
     8.6549870017233435    0.0000000000000000    0.0000000000000000
     4.3274935008616717    7.4954386129165247    0.0000000000000000
     0.0000000000000000    0.0000000000000000   27.0667672948810178
 Au  Hg 
  36   1
Selective dynamics
Direct
  0.0000000000000000  0.0000000000000000  0.3694567545157579   F   F   F
  0.3333333333333333  0.0000000000000000  0.3694567545157579   F   F   F
  0.6666666666666666  0.0000000000000000  0.3694567545157579   F   F   F
  0.0000000000000000  0.3333333333333333  0.3694567545157579   F   F   F
  0.3333333333333334  0.3333333333333333  0.3694567545157579   F   F   F
  0.6666666666666666  0.3333333333333333  0.3694567545157579   F   F   F
  0.0000000000000000  0.6666666666666666  0.3694567545157579   F   F   F
  0.3333333333333333  0.6666666666666666  0.3694567545157579   F   F   F
  0.6666666666666667  0.6666666666666666  0.3694567545157579   F   F   F
  0.1115913675228084  0.1108242464737413  0.4645150960393358   T   T   T
  0.4454863353349678  0.1105416213394121  0.4650147881804356   T   T   T
  0.7770682939144689  0.1114658530427654  0.4648472680775880   T   T   T
  0.1113339165659507  0.4443330417170249  0.4634439334189655   T   T   T
  0.4454863353349688  0.4439720433256210  0.4650147881804357   T   T   T
  0.7771692402889495  0.4444741385997892  0.4638135380956190   T   T   T
  0.1115913675228080  0.7775843860034511  0.4645150960393358   T   T   T
  0.4445852031200298  0.7777073984399849  0.4657859094869200   T   T   T
  0.7771692402889476  0.7783566211112615  0.4638135380956191   T   T   T
 -0.1105676199226238  0.2225670942259241  0.5582308720777184   T   T   T
  0.2217602777720225  0.2227854852415896  0.5585060031143495   T   T   T
  0.5557440059081808  0.2221279970459097  0.5589263694461105   T   T   T
 -0.1114935317299982  0.5557467658649988  0.5568477650733193   T   T   T
  0.2217602777720232  0.5554542369863880  0.5585060031143492   T   T   T
  0.5558431131083280  0.5558162069447530  0.5596217857680548   T   T   T
 -0.1105676199226249  0.8880005256966997  0.5582308720777184   T   T   T
  0.2218686426224836  0.8890656786887591  0.5589908494213767   T   T   T
  0.5558431131083280  0.8883406799469188  0.5596217857680564   T   T   T
 -0.0002943608225531  0.0001471804112766  0.6534082197956053   T   T   T
  0.3324763922735389  0.0009742474283765  0.6538663391808108   T   T   T
  0.6673285268644595 -0.0006571618941219  0.6535988938601685   T   T   T
 -0.0003488775699260  0.3324207586335437  0.6513452894825562   T   T   T
  0.3340797554425143  0.3329601222787433  0.6553483415612318   T   T   T
  0.6673285268644590  0.3333286350296647  0.6535988938601641   T   T   T
 -0.0003488775699265  0.6679281189363832  0.6513452894825562   T   T   T
  0.3324763922735400  0.6665493602980838  0.6538663391808108   T   T   T
  0.6658393630361381  0.6670803184819302  0.6566422358331695   T   T   T
 -0.0000812439165042  0.5000406219582513  0.7506203219945770   T   T   T
