Au Hg
 1.0000000000000000
     8.6549870017233435    0.0000000000000000    0.0000000000000000
     4.3274935008616717    7.4954386129165247    0.0000000000000000
     0.0000000000000000    0.0000000000000000   27.0667672948810178
 Au  Hg 
  36   1
Selective dynamics
Direct
  0.0000000000000000  0.0000000000000000  0.3694567545157579   F   F   F
  0.3333333333333333  0.0000000000000000  0.3694567545157579   F   F   F
  0.6666666666666666  0.0000000000000000  0.3694567545157579   F   F   F
  0.0000000000000000  0.3333333333333333  0.3694567545157579   F   F   F
  0.3333333333333334  0.3333333333333333  0.3694567545157579   F   F   F
  0.6666666666666666  0.3333333333333333  0.3694567545157579   F   F   F
  0.0000000000000000  0.6666666666666666  0.3694567545157579   F   F   F
  0.3333333333333333  0.6666666666666666  0.3694567545157579   F   F   F
  0.6666666666666667  0.6666666666666666  0.3694567545157579   F   F   F
  0.1109997083836928  0.1109997083836930  0.4634439334189660   T   T   T
  0.4450232877779303  0.1111408052664569  0.4638135380956178   T   T   T
  0.7772082880060792  0.1106387099922892  0.4650147881804349   T   T   T
  0.1111408052664576  0.4450232877779299  0.4638135380956190   T   T   T
  0.4443740651066524  0.4443740651066538  0.4657859094869192   T   T   T
  0.7774909131404093  0.4442510526701170  0.4645150960393352   T   T   T
  0.1106387099922895  0.7772082880060791  0.4650147881804351   T   T   T
  0.4442510526701172  0.7774909131404105  0.4645150960393352   T   T   T
  0.7781325197094348  0.7781325197094324  0.4648472680775884   T   T   T
 -0.1105478480917432  0.2221209036530551  0.5585060031143496   T   T   T
  0.2224134325316665  0.2224134325316658  0.5568477650733201   T   T   T
  0.5550073466135879  0.2224828736114189  0.5596217857680544   T   T   T
 -0.1107662391074076  0.5546671923633655  0.5582308720777185   T   T   T
  0.2224828736114184  0.5550073466135872  0.5596217857680535   T   T   T
  0.5557323453554246  0.5557323453554238  0.5589908494213738   T   T   T
 -0.1112053362874238  0.8887946637125766  0.5589263694461093   T   T   T
  0.2221209036530538  0.8894521519082567  0.5585060031143496   T   T   T
  0.5546671923633664  0.8892337608925925  0.5582308720777184   T   T   T
 -0.0003732110545892 -0.0003732110545899  0.6553483415612337   T   T   T
  0.3345947856030539 -0.0009125746997934  0.6513452894825591   T   T   T
  0.6660095047725451 -0.0000046983036691  0.6535988938601686   T   T   T
 -0.0009125746997925  0.3345947856030529  0.6513452894825591   T   T   T
  0.3337469851485979  0.3337469851485972  0.6566422358331673   T   T   T
  0.6676409140950434  0.3332160269647522  0.6538663391808087   T   T   T
 -0.0000046983036689  0.6660095047725447  0.6535988938601686   T   T   T
  0.3332160269647526  0.6676409140950427  0.6538663391808101   T   T   T
  0.6668138470779442  0.6668138470779437  0.6534082197955978   T   T   T
  0.1667072886249192  0.1667072886249171  0.7506203219945784   T   T   T
