Au Hg
 1.0000000000000000
     8.6549870017233435    0.0000000000000000    0.0000000000000000
     4.3274935008616717    7.4954386129165247    0.0000000000000000
     0.0000000000000000    0.0000000000000000   27.0667672948810178
 Au  Hg 
  36   1
Selective dynamics
Direct
  0.0000000000000000  0.0000000000000000  0.3694567545157579   F   F   F
  0.3333333333333333  0.0000000000000000  0.3694567545157579   F   F   F
  0.6666666666666666  0.0000000000000000  0.3694567545157579   F   F   F
  0.0000000000000000  0.3333333333333333  0.3694567545157579   F   F   F
  0.3333333333333334  0.3333333333333333  0.3694567545157579   F   F   F
  0.6666666666666666  0.3333333333333333  0.3694567545157579   F   F   F
  0.0000000000000000  0.6666666666666666  0.3694567545157579   F   F   F
  0.3333333333333333  0.6666666666666666  0.3694567545157579   F   F   F
  0.6666666666666667  0.6666666666666666  0.3694567545157579   F   F   F
  0.1109997083836924  0.1113339165659479  0.4634439334189654   T   T   T
  0.4442510526701169  0.1115913675228065  0.4645150960393352   T   T   T
  0.7774909131404093  0.1115913675228062  0.4645150960393353   T   T   T
  0.1106387099922879  0.4454863353349658  0.4650147881804353   T   T   T
  0.4443740651066527  0.4445852031200279  0.4657859094869207   T   T   T
  0.7772082880060801  0.4454863353349654  0.4650147881804361   T   T   T
  0.1111408052664573  0.7771692402889459  0.4638135380956184   T   T   T
  0.4450232877779289  0.7771692402889475  0.4638135380956184   T   T   T
  0.7781325197094332  0.7770682939144670  0.4648472680775869   T   T   T
 -0.1105478480917434  0.2217602777720206  0.5585060031143483   T   T   T
  0.2221209036530558  0.2217602777720211  0.5585060031143483   T   T   T
  0.5557323453554249  0.2218686426224833  0.5589908494213746   T   T   T
 -0.1112053362874238  0.5557440059081805  0.5589263694461093   T   T   T
  0.2224828736114194  0.5558431131083261  0.5596217857680553   T   T   T
  0.5550073466135874  0.5558431131083269  0.5596217857680553   T   T   T
 -0.1107662391074069  0.8894323800773742  0.5582308720777189   T   T   T
  0.2224134325316662  0.8885064682700008  0.5568477650733197   T   T   T
  0.5546671923633677  0.8894323800773745  0.5582308720777180   T   T   T
 -0.0009125746997916 -0.0003488775699278  0.6513452894825580   T   T   T
  0.3345947856030527 -0.0003488775699285  0.6513452894825578   T   T   T
  0.6668138470779436 -0.0002943608225539  0.6534082197956000   T   T   T
 -0.0003732110545899  0.3340797554425123  0.6553483415612286   T   T   T
  0.3332160269647525  0.3324763922735368  0.6538663391808082   T   T   T
  0.6676409140950434  0.3324763922735370  0.6538663391808083   T   T   T
 -0.0000046983036695  0.6673285268644585  0.6535988938601688   T   T   T
  0.3337469851485977  0.6658393630361379  0.6566422358331687   T   T   T
  0.6660095047725444  0.6673285268644579  0.6535988938601688   T   T   T
  0.1667072886249173 -0.0000812439165014  0.7506203219945786   T   T   T
