Au Hg
 1.0000000000000000
     8.6549870017233435    0.0000000000000000    0.0000000000000000
     4.3274935008616717    7.4954386129165247    0.0000000000000000
     0.0000000000000000    0.0000000000000000   27.0667672948810178
 Au  Hg 
  36   1
Selective dynamics
Direct
  0.0000000000000000  0.0000000000000000  0.3694567545157579   F   F   F
  0.3333333333333333  0.0000000000000000  0.3694567545157579   F   F   F
  0.6666666666666666  0.0000000000000000  0.3694567545157579   F   F   F
  0.0000000000000000  0.3333333333333333  0.3694567545157579   F   F   F
  0.3333333333333334  0.3333333333333333  0.3694567545157579   F   F   F
  0.6666666666666666  0.3333333333333333  0.3694567545157579   F   F   F
  0.0000000000000000  0.6666666666666666  0.3694567545157579   F   F   F
  0.3333333333333333  0.6666666666666666  0.3694567545157579   F   F   F
  0.6666666666666667  0.6666666666666666  0.3694567545157579   F   F   F
  0.1115913675228076  0.1109177193367836  0.4645150960393351   T   T   T
  0.4445852031200288  0.1110407317733184  0.4657859094869192   T   T   T
  0.7771692402889473  0.1116899544445955  0.4638135380956184   T   T   T
  0.1115913675228077  0.4441575798070748  0.4645150960393351   T   T   T
  0.4454863353349663  0.4438749546727452  0.4650147881804359   T   T   T
  0.7770682939144687  0.4447991863760994  0.4648472680775886   T   T   T
  0.1113339165659489  0.7776663750503585  0.4634439334189657   T   T   T
  0.4454863353349664  0.7773053766589541  0.4650147881804359   T   T   T
  0.7771692402889475  0.7778074719331232  0.4638135380956184   T   T   T
 -0.1105676199226245  0.2213338590300310  0.5582308720777183   T   T   T
  0.2218686426224839  0.2223990120220906  0.5589908494213731   T   T   T
  0.5558431131083277  0.2216740132802530  0.5596217857680532   T   T   T
 -0.1105676199226246  0.5559004275592583  0.5582308720777192   T   T   T
  0.2217602777720205  0.5561188185749230  0.5585060031143487   T   T   T
  0.5557440059081800  0.5554613303792425  0.5589263694461107   T   T   T
 -0.1114935317299991  0.8890800991983320  0.5568477650733192   T   T   T
  0.2217602777720202  0.8887875703197220  0.5585060031143491   T   T   T
  0.5558431131083266  0.8891495402780857  0.5596217857680545   T   T   T
 -0.0003488775699279  0.0012614522697177  0.6513452894825590   T   T   T
  0.3324763922735372 -0.0001173063685813  0.6538663391808094   T   T   T
  0.6658393630361358  0.0004136518152646  0.6566422358331651   T   T   T
 -0.0002943608225541  0.3334805137446093  0.6534082197955987   T   T   T
  0.3324763922735365  0.3343075807617097  0.6538663391808062   T   T   T
  0.6673285268644568  0.3326761714392106  0.6535988938601693   T   T   T
 -0.0003488775699282  0.6657540919668747  0.6513452894825601   T   T   T
  0.3340797554425124  0.6662934556120758  0.6553483415612307   T   T   T
  0.6673285268644563  0.6666619683629984  0.6535988938601693   T   T   T
 -0.0000812439165007 -0.1666260447084158  0.7506203219945798   T   T   T
