Au Hg
 1.0000000000000000
     8.6549870017233435    0.0000000000000000    0.0000000000000000
     4.3274935008616717    7.4954386129165247    0.0000000000000000
     0.0000000000000000    0.0000000000000000   27.0667672948810178
 Au  Hg 
  36   1
Selective dynamics
Direct
  0.0000000000000000  0.0000000000000000  0.3694567545157579   F   F   F
  0.3333333333333333  0.0000000000000000  0.3694567545157579   F   F   F
  0.6666666666666666  0.0000000000000000  0.3694567545157579   F   F   F
  0.0000000000000000  0.3333333333333333  0.3694567545157579   F   F   F
  0.3333333333333334  0.3333333333333333  0.3694567545157579   F   F   F
  0.6666666666666666  0.3333333333333333  0.3694567545157579   F   F   F
  0.0000000000000000  0.6666666666666666  0.3694567545157579   F   F   F
  0.3333333333333333  0.6666666666666666  0.3694567545157579   F   F   F
  0.6666666666666667  0.6666666666666666  0.3694567545157579   F   F   F
  0.1111408052664563  0.1116899544445966  0.4638135380956187   T   T   T
  0.4443740651066532  0.1110407317733193  0.4657859094869197   T   T   T
  0.7774909131404091  0.1109177193367841  0.4645150960393342   T   T   T
  0.1106387099922889  0.4438749546727462  0.4650147881804346   T   T   T
  0.4442510526701166  0.4441575798070758  0.4645150960393352   T   T   T
  0.7781325197094330  0.4447991863760991  0.4648472680775869   T   T   T
  0.1109997083836927  0.7776663750503598  0.4634439334189650   T   T   T
  0.4450232877779308  0.7778074719331239  0.4638135380956183   T   T   T
  0.7772082880060801  0.7773053766589553  0.4650147881804355   T   T   T
 -0.1107662391074081  0.2213338590300327  0.5582308720777169   T   T   T
  0.2224828736114201  0.2216740132802529  0.5596217857680540   T   T   T
  0.5557323453554254  0.2223990120220914  0.5589908494213731   T   T   T
 -0.1112053362874234  0.5554613303792429  0.5589263694461079   T   T   T
  0.2221209036530563  0.5561188185749216  0.5585060031143481   T   T   T
  0.5546671923633657  0.5559004275592583  0.5582308720777166   T   T   T
 -0.1105478480917438  0.8887875703197220  0.5585060031143479   T   T   T
  0.2224134325316670  0.8890800991983313  0.5568477650733196   T   T   T
  0.5550073466135864  0.8891495402780853  0.5596217857680549   T   T   T
 -0.0009125746997904  0.0012614522697188  0.6513452894825569   T   T   T
  0.3337469851485989  0.0004136518152649  0.6566422358331724   T   T   T
  0.6676409140950430 -0.0001173063685810  0.6538663391808085   T   T   T
 -0.0000046983036687  0.3326761714392112  0.6535988938601659   T   T   T
  0.3332160269647534  0.3343075807617103  0.6538663391808062   T   T   T
  0.6668138470779441  0.3334805137446093  0.6534082197955993   T   T   T
 -0.0003732110545888  0.6662934556120762  0.6553483415612295   T   T   T
  0.3345947856030528  0.6657540919668747  0.6513452894825582   T   T   T
  0.6660095047725467  0.6666619683629963  0.6535988938601659   T   T   T
  0.1667072886249165 -0.1666260447084155  0.7506203219945780   T   T   T
