Au Hg
 1.0000000000000000
     8.6549870017233435    0.0000000000000000    0.0000000000000000
     4.3274935008616717    7.4954386129165247    0.0000000000000000
     0.0000000000000000    0.0000000000000000   27.0667672948810178
 Au  Hg 
  36   1
Selective dynamics
Direct
  0.0000000000000000  0.0000000000000000  0.3694567545157579   F   F   F
  0.3333333333333333  0.0000000000000000  0.3694567545157579   F   F   F
  0.6666666666666666  0.0000000000000000  0.3694567545157579   F   F   F
  0.0000000000000000  0.3333333333333333  0.3694567545157579   F   F   F
  0.3333333333333334  0.3333333333333333  0.3694567545157579   F   F   F
  0.6666666666666666  0.3333333333333333  0.3694567545157579   F   F   F
  0.0000000000000000  0.6666666666666666  0.3694567545157579   F   F   F
  0.3333333333333333  0.6666666666666666  0.3694567545157579   F   F   F
  0.6666666666666667  0.6666666666666666  0.3694567545157579   F   F   F
  0.1105025736222811  0.1111408052664561  0.4638135380956181   T   T   T
  0.4446672498992820  0.1109997083836924  0.4634439334189658   T   T   T
  0.7788196686683005  0.1106387099922877  0.4650147881804353   T   T   T
  0.1105025736222807  0.4450232877779297  0.4638135380956193   T   T   T
  0.4449247008561413  0.4442510526701168  0.4645150960393356   T   T   T
  0.7779185364533618  0.4443740651066523  0.4657859094869197   T   T   T
  0.1104016272478026  0.7781325197094320  0.4648472680775879   T   T   T
  0.4449247008561412  0.7774909131404083  0.4645150960393356   T   T   T
  0.7788196686683012  0.7772082880060790  0.4650147881804356   T   T   T
 -0.1108235535583396  0.2224828736114200  0.5596217857680539   T   T   T
  0.2218398016033353  0.2224134325316664  0.5568477650733199   T   T   T
  0.5550936111053558  0.2221209036530556  0.5585060031143477   T   T   T
 -0.1108235535583390  0.5550073466135874  0.5596217857680551   T   T   T
  0.2227657134107114  0.5546671923633656  0.5582308720777198   T   T   T
  0.5552019759558159  0.5557323453554269  0.5589908494213743   T   T   T
 -0.1109226607584855  0.8887946637125772  0.5589263694461092   T   T   T
  0.2227657134107097  0.8892337608925923  0.5582308720777193   T   T   T
  0.5550936111053555  0.8894521519082575  0.5585060031143477   T   T   T
  0.0006618601977917 -0.0000046983036704  0.6535988938601670   T   T   T
  0.3329844557634059 -0.0009125746997900  0.6513452894825584   T   T   T
  0.6674130887758459 -0.0003732110545904  0.6553483415612289   T   T   T
 -0.0008273036305306  0.3337469851485983  0.6566422358331698   T   T   T
  0.3329844557634064  0.3345947856030504  0.6513452894825599   T   T   T
  0.6658097256068712  0.3332160269647514  0.6538663391808058   T   T   T
  0.0006618601977911  0.6660095047725439  0.6535988938601672   T   T   T
  0.3330389725107790  0.6668138470779434  0.6534082197956045   T   T   T
  0.6658097256068702  0.6676409140950434  0.6538663391808058   T   T   T
  0.3332520894168294  0.1667072886249171  0.7506203219945813   T   T   T
