Au Hg
 1.0000000000000000
     8.6549870017233435    0.0000000000000000    0.0000000000000000
     4.3274935008616717    7.4954386129165247    0.0000000000000000
     0.0000000000000000    0.0000000000000000   27.0667672948810178
 Au  Hg 
  36   1
Selective dynamics
Direct
  0.0000000000000000  0.0000000000000000  0.3694567545157579   F   F   F
  0.3333333333333333  0.0000000000000000  0.3694567545157579   F   F   F
  0.6666666666666666  0.0000000000000000  0.3694567545157579   F   F   F
  0.0000000000000000  0.3333333333333333  0.3694567545157579   F   F   F
  0.3333333333333334  0.3333333333333333  0.3694567545157579   F   F   F
  0.6666666666666666  0.3333333333333333  0.3694567545157579   F   F   F
  0.0000000000000000  0.6666666666666666  0.3694567545157579   F   F   F
  0.3333333333333333  0.6666666666666666  0.3694567545157579   F   F   F
  0.6666666666666667  0.6666666666666666  0.3694567545157579   F   F   F
  0.1114658530427650  0.1114658530427659  0.4648472680775884   T   T   T
  0.4439720433256205  0.1105416213394124  0.4650147881804352   T   T   T
  0.7775843860034497  0.1108242464737416  0.4645150960393351   T   T   T
  0.1105416213394120  0.4439720433256208  0.4650147881804352   T   T   T
  0.4443330417170250  0.4443330417170253  0.4634439334189652   T   T   T
  0.7783566211112636  0.4444741385997895  0.4638135380956188   T   T   T
  0.1108242464737410  0.7775843860034510  0.4645150960393356   T   T   T
  0.4444741385997887  0.7783566211112639  0.4638135380956191   T   T   T
  0.7777073984399834  0.7777073984399864  0.4657859094869209   T   T   T
 -0.1119994743032983  0.2225670942259222  0.5582308720777196   T   T   T
  0.2221279970459099  0.2221279970459086  0.5589263694461100   T   T   T
  0.5554542369863897  0.2227854852415883  0.5585060031143473   T   T   T
 -0.1116593200530780  0.5558162069447505  0.5596217857680547   T   T   T
  0.2227854852415917  0.5554542369863873  0.5585060031143473   T   T   T
  0.5557467658650000  0.5557467658649978  0.5568477650733189   T   T   T
 -0.1109343213112407  0.8890656786887575  0.5589908494213751   T   T   T
  0.2225670942259252  0.8880005256966991  0.5582308720777193   T   T   T
  0.5558162069447535  0.8883406799469187  0.5596217857680547   T   T   T
  0.0001471804112778  0.0001471804112753  0.6534082197956043   T   T   T
  0.3333286350296649 -0.0006571618941221  0.6535988938601683   T   T   T
  0.6665493602980876  0.0009742474283754  0.6538663391808078   T   T   T
 -0.0006571618941199  0.3333286350296626  0.6535988938601694   T   T   T
  0.3329601222787456  0.3329601222787428  0.6553483415612282   T   T   T
  0.6679281189363862  0.3324207586335417  0.6513452894825585   T   T   T
  0.0009742474283792  0.6665493602980839  0.6538663391808078   T   T   T
  0.3324207586335458  0.6679281189363834  0.6513452894825585   T   T   T
  0.6670803184819336  0.6670803184819298  0.6566422358331658   T   T   T
  0.5000406219582488  0.5000406219582516  0.7506203219945797   T   T   T
