Au Hg
 1.0000000000000000
     8.6549870017233435    0.0000000000000000    0.0000000000000000
     4.3274935008616717    7.4954386129165247    0.0000000000000000
     0.0000000000000000    0.0000000000000000   27.0667672948810178
 Au  Hg 
  36   1
Selective dynamics
Direct
  0.0000000000000000  0.0000000000000000  0.3694567545157579   F   F   F
  0.3333333333333333  0.0000000000000000  0.3694567545157579   F   F   F
  0.6666666666666666  0.0000000000000000  0.3694567545157579   F   F   F
  0.0000000000000000  0.3333333333333333  0.3694567545157579   F   F   F
  0.3333333333333334  0.3333333333333333  0.3694567545157579   F   F   F
  0.6666666666666666  0.3333333333333333  0.3694567545157579   F   F   F
  0.0000000000000000  0.6666666666666666  0.3694567545157579   F   F   F
  0.3333333333333333  0.6666666666666666  0.3694567545157579   F   F   F
  0.6666666666666667  0.6666666666666666  0.3694567545157579   F   F   F
  0.1105416213394132  0.1121530020016317  0.4650147881804357   T   T   T
  0.4439720433256212  0.1121530020016324  0.4650147881804356   T   T   T
  0.7777073984399867  0.1112518697866933  0.4657859094869198   T   T   T
  0.1114658530427665  0.4437349605811338  0.4648472680775878   T   T   T
  0.4444741385997902  0.4438359069556134  0.4638135380956185   T   T   T
  0.7783566211112638  0.4438359069556122  0.4638135380956185   T   T   T
  0.1108242464737422  0.7782580341894721  0.4645150960393356   T   T   T
  0.4443330417170264  0.7780005832326137  0.4634439334189651   T   T   T
  0.7775843860034509  0.7782580341894739  0.4645150960393356   T   T   T
 -0.1116593200530805  0.2225097797749942  0.5596217857680543   T   T   T
  0.2221279970459099  0.2224106725748469  0.5589263694461098   T   T   T
  0.5558162069447529  0.2225097797749943  0.5596217857680547   T   T   T
 -0.1119994743033005  0.5560990467440431  0.5582308720777180   T   T   T
  0.2225670942259247  0.5560990467440430  0.5582308720777180   T   T   T
  0.5557467658649994  0.5551731349366679  0.5568477650733197   T   T   T
 -0.1109343213112422  0.8885353092891510  0.5589908494213749   T   T   T
  0.2227854852415887  0.8884269444386893  0.5585060031143491   T   T   T
  0.5554542369863886  0.8884269444386893  0.5585060031143491   T   T   T
  0.0009742474283774 -0.0008569410597965  0.6538663391808073   T   T   T
  0.3329601222787442  0.0007464221091781  0.6553483415612338   T   T   T
  0.6665493602980859 -0.0008569410597961  0.6538663391808073   T   T   T
 -0.0006571618941215  0.3339951935311235  0.6535988938601678   T   T   T
  0.3333286350296630  0.3339951935311239  0.6535988938601677   T   T   T
  0.6670803184819318  0.3325060297028029  0.6566422358331708   T   T   T
  0.0001471804112780  0.6663723058441120  0.6534082197956013   T   T   T
  0.3324207586335435  0.6663177890967377  0.6513452894825570   T   T   T
  0.6679281189363852  0.6663177890967378  0.6513452894825570   T   T   T
  0.5000406219582513  0.6665854227501641  0.7506203219945780   T   T   T
