Au Hg
 1.0000000000000000
     8.6549870017233435    0.0000000000000000    0.0000000000000000
     4.3274935008616717    7.4954386129165247    0.0000000000000000
     0.0000000000000000    0.0000000000000000   27.0667672948810178
 Au  Hg 
  36   1
Selective dynamics
Direct
  0.0000000000000000  0.0000000000000000  0.3694567545157579   F   F   F
  0.3333333333333333  0.0000000000000000  0.3694567545157579   F   F   F
  0.6666666666666666  0.0000000000000000  0.3694567545157579   F   F   F
  0.0000000000000000  0.3333333333333333  0.3694567545157579   F   F   F
  0.3333333333333334  0.3333333333333333  0.3694567545157579   F   F   F
  0.6666666666666666  0.3333333333333333  0.3694567545157579   F   F   F
  0.0000000000000000  0.6666666666666666  0.3694567545157579   F   F   F
  0.3333333333333333  0.6666666666666666  0.3694567545157579   F   F   F
  0.6666666666666667  0.6666666666666666  0.3694567545157579   F   F   F
  0.1110407317733194  0.1112518697866944  0.4657859094869185   T   T   T
  0.4438749546727450  0.1121530020016320  0.4650147881804353   T   T   T
  0.7773053766589550  0.1121530020016316  0.4650147881804353   T   T   T
  0.1116899544445951  0.4438359069556140  0.4638135380956179   T   T   T
  0.4447991863760997  0.4437349605811339  0.4648472680775881   T   T   T
  0.7778074719331234  0.4438359069556133  0.4638135380956186   T   T   T
  0.1109177193367851  0.7782580341894719  0.4645150960393352   T   T   T
  0.4441575798070759  0.7782580341894726  0.4645150960393352   T   T   T
  0.7776663750503594  0.7780005832326145  0.4634439334189653   T   T   T
 -0.1108504597219138  0.2225097797749934  0.5596217857680543   T   T   T
  0.2216740132802534  0.2225097797749936  0.5596217857680543   T   T   T
  0.5554613303792432  0.2224106725748468  0.5589263694461098   T   T   T
 -0.1109199008016680  0.5551731349366683  0.5568477650733203   T   T   T
  0.2213338590300331  0.5560990467440420  0.5582308720777180   T   T   T
  0.5559004275592584  0.5560990467440420  0.5582308720777186   T   T   T
 -0.1112124296802780  0.8884269444386879  0.5585060031143491   T   T   T
  0.2223990120220909  0.8885353092891515  0.5589908494213729   T   T   T
  0.5561188185749246  0.8884269444386879  0.5585060031143489   T   T   T
 -0.0001173063685805 -0.0008569410597961  0.6538663391808073   T   T   T
  0.3343075807617101 -0.0008569410597962  0.6538663391808073   T   T   T
  0.6662934556120772  0.0007464221091788  0.6553483415612306   T   T   T
  0.0004136518152649  0.3325060297028035  0.6566422358331688   T   T   T
  0.3326761714392121  0.3339951935311237  0.6535988938601671   T   T   T
  0.6666619683629973  0.3339951935311238  0.6535988938601671   T   T   T
  0.0012614522697181  0.6663177890967388  0.6513452894825583   T   T   T
  0.3334805137446100  0.6663723058441133  0.6534082197955999   T   T   T
  0.6657540919668749  0.6663177890967393  0.6513452894825583   T   T   T
  0.8333739552915838 -0.3334145772498341  0.7506203219945797   T   T   T
