Au Hg
 1.0000000000000000
     8.6549870017233435    0.0000000000000000    0.0000000000000000
     4.3274935008616717    7.4954386129165247    0.0000000000000000
     0.0000000000000000    0.0000000000000000   27.0667672948810178
 Au  Hg 
  36   1
Selective dynamics
Direct
  0.0000000000000000  0.0000000000000000  0.3694567545157579   F   F   F
  0.3333333333333333  0.0000000000000000  0.3694567545157579   F   F   F
  0.6666666666666666  0.0000000000000000  0.3694567545157579   F   F   F
  0.0000000000000000  0.3333333333333333  0.3694567545157579   F   F   F
  0.3333333333333334  0.3333333333333333  0.3694567545157579   F   F   F
  0.6666666666666666  0.3333333333333333  0.3694567545157579   F   F   F
  0.0000000000000000  0.6666666666666666  0.3694567545157579   F   F   F
  0.3333333333333333  0.6666666666666666  0.3694567545157579   F   F   F
  0.6666666666666667  0.6666666666666666  0.3694567545157579   F   F   F
  0.1121530020016312  0.1105416213394121  0.4650147881804356   T   T   T
  0.4437349605811335  0.1114658530427654  0.4648472680775880   T   T   T
  0.7782580341894731  0.1108242464737412  0.4645150960393353   T   T   T
  0.1121530020016330  0.4439720433256201  0.4650147881804356   T   T   T
  0.4438359069556128  0.4444741385997890  0.4638135380956185   T   T   T
  0.7780005832326136  0.4443330417170248  0.4634439334189653   T   T   T
  0.1112518697866924  0.7777073984399866  0.4657859094869207   T   T   T
  0.4438359069556123  0.7783566211112627  0.4638135380956185   T   T   T
  0.7782580341894731  0.7775843860034491  0.4645150960393353   T   T   T
 -0.1115730555613118  0.2227854852415893  0.5585060031143486   T   T   T
  0.2224106725748473  0.2221279970459089  0.5589263694461106   T   T   T
  0.5560990467440410  0.2225670942259250  0.5582308720777178   T   T   T
 -0.1115730555613122  0.5554542369863880  0.5585060031143487   T   T   T
  0.2225097797749942  0.5558162069447519  0.5596217857680553   T   T   T
  0.5551731349366681  0.5557467658649983  0.5568477650733193   T   T   T
 -0.1114646907108502  0.8890656786887571  0.5589908494213749   T   T   T
  0.2225097797749933  0.8883406799469192  0.5596217857680553   T   T   T
  0.5560990467440398  0.8880005256966985  0.5582308720777183   T   T   T
 -0.0008569410597968  0.0009742474283774  0.6538663391808082   T   T   T
  0.3339951935311253 -0.0006571618941231  0.6535988938601693   T   T   T
  0.6663723058441129  0.0001471804112772  0.6534082197955995   T   T   T
  0.0007464221091802  0.3329601222787429  0.6553483415612315   T   T   T
  0.3339951935311248  0.3333286350296641  0.6535988938601693   T   T   T
  0.6663177890967376  0.3324207586335434  0.6513452894825582   T   T   T
 -0.0008569410597963  0.6665493602980856  0.6538663391808082   T   T   T
  0.3325060297028034  0.6670803184819313  0.6566422358331702   T   T   T
  0.6663177890967390  0.6679281189363838  0.6513452894825582   T   T   T
  0.6665854227501663  0.5000406219582513  0.7506203219945791   T   T   T
