Au Hg
 1.0000000000000000
     8.6549870017233435    0.0000000000000000    0.0000000000000000
     4.3274935008616717    7.4954386129165247    0.0000000000000000
     0.0000000000000000    0.0000000000000000   27.0667672948810178
 Au  Hg 
  36   1
Selective dynamics
Direct
  0.0000000000000000  0.0000000000000000  0.3694567545157579   F   F   F
  0.3333333333333333  0.0000000000000000  0.3694567545157579   F   F   F
  0.6666666666666666  0.0000000000000000  0.3694567545157579   F   F   F
  0.0000000000000000  0.3333333333333333  0.3694567545157579   F   F   F
  0.3333333333333334  0.3333333333333333  0.3694567545157579   F   F   F
  0.6666666666666666  0.3333333333333333  0.3694567545157579   F   F   F
  0.0000000000000000  0.6666666666666666  0.3694567545157579   F   F   F
  0.3333333333333333  0.6666666666666666  0.3694567545157579   F   F   F
  0.6666666666666667  0.6666666666666666  0.3694567545157579   F   F   F
  0.1111408052664562  0.1105025736222798  0.4638135380956178   T   T   T
  0.4450232877779305  0.1105025736222795  0.4638135380956180   T   T   T
  0.7781325197094333  0.1104016272478001  0.4648472680775887   T   T   T
  0.1109997083836910  0.4446672498992822  0.4634439334189657   T   T   T
  0.4442510526701164  0.4449247008561388  0.4645150960393354   T   T   T
  0.7774909131404089  0.4449247008561392  0.4645150960393359   T   T   T
  0.1106387099922873  0.7788196686682994  0.4650147881804366   T   T   T
  0.4443740651066516  0.7779185364533601  0.4657859094869204   T   T   T
  0.7772082880060763  0.7788196686683000  0.4650147881804360   T   T   T
 -0.1107662391074072  0.2227657134107062  0.5582308720777192   T   T   T
  0.2224134325316664  0.2218398016033337  0.5568477650733183   T   T   T
  0.5546671923633671  0.2227657134107062  0.5582308720777189   T   T   T
 -0.1105478480917428  0.5550936111053546  0.5585060031143502   T   T   T
  0.2221209036530553  0.5550936111053543  0.5585060031143492   T   T   T
  0.5557323453554256  0.5552019759558154  0.5589908494213731   T   T   T
 -0.1112053362874238  0.8890773392415129  0.5589263694461143   T   T   T
  0.2224828736114200  0.8891764464416603  0.5596217857680560   T   T   T
  0.5550073466135889  0.8891764464416603  0.5596217857680560   T   T   T
 -0.0000046983036685  0.0006618601977903  0.6535988938601714   T   T   T
  0.3337469851485991 -0.0008273036305316  0.6566422358331702   T   T   T
  0.6660095047725439  0.0006618601977906  0.6535988938601714   T   T   T
 -0.0009125746997897  0.3329844557634042  0.6513452894825561   T   T   T
  0.3345947856030513  0.3329844557634041  0.6513452894825561   T   T   T
  0.6668138470779434  0.3330389725107796  0.6534082197956019   T   T   T
 -0.0003732110545893  0.6674130887758444  0.6553483415612372   T   T   T
  0.3332160269647534  0.6658097256068682  0.6538663391808071   T   T   T
  0.6676409140950437  0.6658097256068702  0.6538663391808071   T   T   T
  0.1667072886249170  0.3332520894168325  0.7506203219945762   T   T   T
