Au Hg
 1.0000000000000000
     8.6549870017233435    0.0000000000000000    0.0000000000000000
     4.3274935008616717    7.4954386129165247    0.0000000000000000
     0.0000000000000000    0.0000000000000000   27.0667672948810178
 Au  Hg 
  36   1
Selective dynamics
Direct
  0.0000000000000000  0.0000000000000000  0.3694567545157579   F   F   F
  0.3333333333333333  0.0000000000000000  0.3694567545157579   F   F   F
  0.6666666666666666  0.0000000000000000  0.3694567545157579   F   F   F
  0.0000000000000000  0.3333333333333333  0.3694567545157579   F   F   F
  0.3333333333333334  0.3333333333333333  0.3694567545157579   F   F   F
  0.6666666666666666  0.3333333333333333  0.3694567545157579   F   F   F
  0.0000000000000000  0.6666666666666666  0.3694567545157579   F   F   F
  0.3333333333333333  0.6666666666666666  0.3694567545157579   F   F   F
  0.6666666666666667  0.6666666666666666  0.3694567545157579   F   F   F
  0.1105416213394121  0.1106387099922879  0.4650147881804355   T   T   T
  0.4443330417170256  0.1109997083836912  0.4634439334189654   T   T   T
  0.7783566211112624  0.1111408052664559  0.4638135380956185   T   T   T
  0.1108242464737417  0.4442510526701169  0.4645150960393356   T   T   T
  0.4444741385997891  0.4450232877779288  0.4638135380956185   T   T   T
  0.7777073984399880  0.4443740651066523  0.4657859094869204   T   T   T
  0.1114658530427653  0.7781325197094329  0.4648472680775875   T   T   T
  0.4439720433256212  0.7772082880060794  0.4650147881804355   T   T   T
  0.7775843860034500  0.7774909131404083  0.4645150960393356   T   T   T
 -0.1116593200530785  0.2224828736114195  0.5596217857680554   T   T   T
  0.2227854852415905  0.2221209036530549  0.5585060031143498   T   T   T
  0.5557467658649995  0.2224134325316657  0.5568477650733195   T   T   T
 -0.1109343213112408  0.5557323453554242  0.5589908494213759   T   T   T
  0.2225670942259258  0.5546671923633654  0.5582308720777183   T   T   T
  0.5558162069447552  0.5550073466135861  0.5596217857680539   T   T   T
 -0.1119994743032993  0.8892337608925907  0.5582308720777190   T   T   T
  0.2221279970459100  0.8887946637125774  0.5589263694461095   T   T   T
  0.5554542369863908  0.8894521519082542  0.5585060031143498   T   T   T
 -0.0006571618941223 -0.0000046983036695  0.6535988938601673   T   T   T
  0.3329601222787433 -0.0003732110545917  0.6553483415612338   T   T   T
  0.6679281189363862 -0.0009125746997911  0.6513452894825580   T   T   T
  0.0009742474283789  0.3332160269647515  0.6538663391808107   T   T   T
  0.3324207586335451  0.3345947856030506  0.6513452894825580   T   T   T
  0.6670803184819318  0.3337469851485986  0.6566422358331675   T   T   T
  0.0001471804112772  0.6668138470779431  0.6534082197956019   T   T   T
  0.3333286350296650  0.6660095047725439  0.6535988938601637   T   T   T
  0.6665493602980844  0.6676409140950439  0.6538663391808107   T   T   T
  0.5000406219582496  0.1667072886249164  0.7506203219945787   T   T   T
