Au Hg
 1.0000000000000000
     8.6549870017233435    0.0000000000000000    0.0000000000000000
     4.3274935008616717    7.4954386129165247    0.0000000000000000
     0.0000000000000000    0.0000000000000000   27.0667672948810178
 Au  Hg 
  36   1
Selective dynamics
Direct
  0.0000000000000000  0.0000000000000000  0.3694567545157579   F   F   F
  0.3333333333333333  0.0000000000000000  0.3694567545157579   F   F   F
  0.6666666666666666  0.0000000000000000  0.3694567545157579   F   F   F
  0.0000000000000000  0.3333333333333333  0.3694567545157579   F   F   F
  0.3333333333333334  0.3333333333333333  0.3694567545157579   F   F   F
  0.6666666666666666  0.3333333333333333  0.3694567545157579   F   F   F
  0.0000000000000000  0.6666666666666666  0.3694567545157579   F   F   F
  0.3333333333333333  0.6666666666666666  0.3694567545157579   F   F   F
  0.6666666666666667  0.6666666666666666  0.3694567545157579   F   F   F
  0.1109177193367843  0.1108242464737416  0.4645150960393356   T   T   T
  0.4447991863760986  0.1114658530427655  0.4648472680775880   T   T   T
  0.7773053766589544  0.1105416213394125  0.4650147881804348   T   T   T
  0.1116899544445958  0.4444741385997901  0.4638135380956184   T   T   T
  0.4438749546727441  0.4439720433256215  0.4650147881804353   T   T   T
  0.7776663750503592  0.4443330417170254  0.4634439334189655   T   T   T
  0.1110407317733196  0.7777073984399862  0.4657859094869204   T   T   T
  0.4441575798070750  0.7775843860034510  0.4645150960393351   T   T   T
  0.7778074719331229  0.7783566211112616  0.4638135380956185   T   T   T
 -0.1112124296802772  0.2227854852415883  0.5585060031143483   T   T   T
  0.2213338590300333  0.2225670942259239  0.5582308720777176   T   T   T
  0.5554613303792443  0.2221279970459085  0.5589263694461094   T   T   T
 -0.1109199008016672  0.5557467658649996  0.5568477650733181   T   T   T
  0.2216740132802529  0.5558162069447543  0.5596217857680549   T   T   T
  0.5561188185749227  0.5554542369863877  0.5585060031143486   T   T   T
 -0.1108504597219134  0.8883406799469187  0.5596217857680563   T   T   T
  0.2223990120220911  0.8890656786887574  0.5589908494213762   T   T   T
  0.5559004275592584  0.8880005256966986  0.5582308720777177   T   T   T
 -0.0001173063685811  0.0009742474283766  0.6538663391808113   T   T   T
  0.3334805137446102  0.0001471804112760  0.6534082197956024   T   T   T
  0.6666619683629975 -0.0006571618941231  0.6535988938601670   T   T   T
  0.0012614522697181  0.3324207586335423  0.6513452894825565   T   T   T
  0.3326761714392114  0.3333286350296628  0.6535988938601659   T   T   T
  0.6662934556120769  0.3329601222787425  0.6553483415612303   T   T   T
  0.0004136518152648  0.6670803184819302  0.6566422358331713   T   T   T
  0.3343075807617101  0.6665493602980841  0.6538663391808099   T   T   T
  0.6657540919668776  0.6679281189363835  0.6513452894825565   T   T   T
 -0.1666260447084164  0.5000406219582513  0.7506203219945764   T   T   T
