Au Hg
 1.0000000000000000
     8.6549870017233435    0.0000000000000000    0.0000000000000000
     4.3274935008616717    7.4954386129165247    0.0000000000000000
     0.0000000000000000    0.0000000000000000   27.0667672948810178
 Au  Hg 
  36   1
Selective dynamics
Direct
  0.0000000000000000  0.0000000000000000  0.3694567545157579   F   F   F
  0.3333333333333333  0.0000000000000000  0.3694567545157579   F   F   F
  0.6666666666666666  0.0000000000000000  0.3694567545157579   F   F   F
  0.0000000000000000  0.3333333333333333  0.3694567545157579   F   F   F
  0.3333333333333334  0.3333333333333333  0.3694567545157579   F   F   F
  0.6666666666666666  0.3333333333333333  0.3694567545157579   F   F   F
  0.0000000000000000  0.6666666666666666  0.3694567545157579   F   F   F
  0.3333333333333333  0.6666666666666666  0.3694567545157579   F   F   F
  0.6666666666666667  0.6666666666666666  0.3694567545157579   F   F   F
  0.1108242464737419  0.1115913675228068  0.4645150960393352   T   T   T
  0.4443330417170259  0.1113339165659481  0.4634439334189659   T   T   T
  0.7775843860034516  0.1115913675228065  0.4645150960393349   T   T   T
  0.1105416213394130  0.4454863353349657  0.4650147881804353   T   T   T
  0.4439720433256215  0.4454863353349660  0.4650147881804353   T   T   T
  0.7777073984399862  0.4445852031200275  0.4657859094869204   T   T   T
  0.1114658530427664  0.7770682939144672  0.4648472680775876   T   T   T
  0.4444741385997902  0.7771692402889465  0.4638135380956189   T   T   T
  0.7783566211112632  0.7771692402889467  0.4638135380956189   T   T   T
 -0.1109343213112419  0.2218686426224828  0.5589908494213734   T   T   T
  0.2227854852415898  0.2217602777720212  0.5585060031143484   T   T   T
  0.5554542369863893  0.2217602777720215  0.5585060031143484   T   T   T
 -0.1116593200530807  0.5558431131083279  0.5596217857680557   T   T   T
  0.2221279970459100  0.5557440059081800  0.5589263694461112   T   T   T
  0.5558162069447529  0.5558431131083272  0.5596217857680557   T   T   T
 -0.1119994743033001  0.8894323800773742  0.5582308720777184   T   T   T
  0.2225670942259257  0.8894323800773742  0.5582308720777184   T   T   T
  0.5557467658649996  0.8885064682700008  0.5568477650733190   T   T   T
  0.0001471804112773 -0.0002943608225541  0.6534082197955973   T   T   T
  0.3324207586335431 -0.0003488775699276  0.6513452894825572   T   T   T
  0.6679281189363850 -0.0003488775699278  0.6513452894825572   T   T   T
  0.0009742474283763  0.3324763922735375  0.6538663391808063   T   T   T
  0.3329601222787441  0.3340797554425117  0.6553483415612308   T   T   T
  0.6665493602980861  0.3324763922735375  0.6538663391808096   T   T   T
 -0.0006571618941208  0.6673285268644559  0.6535988938601685   T   T   T
  0.3333286350296641  0.6673285268644574  0.6535988938601679   T   T   T
  0.6670803184819308  0.6658393630361382  0.6566422358331719   T   T   T
  0.5000406219582508 -0.0000812439165016  0.7506203219945791   T   T   T
