Au Hg
 1.0000000000000000
     8.6549870017233435    0.0000000000000000    0.0000000000000000
     4.3274935008616717    7.4954386129165247    0.0000000000000000
     0.0000000000000000    0.0000000000000000   27.0667672948810178
 Au  Hg 
  36   1
Selective dynamics
Direct
  0.0000000000000000  0.0000000000000000  0.3694567545157579   F   F   F
  0.3333333333333333  0.0000000000000000  0.3694567545157579   F   F   F
  0.6666666666666666  0.0000000000000000  0.3694567545157579   F   F   F
  0.0000000000000000  0.3333333333333333  0.3694567545157579   F   F   F
  0.3333333333333334  0.3333333333333333  0.3694567545157579   F   F   F
  0.6666666666666666  0.3333333333333333  0.3694567545157579   F   F   F
  0.0000000000000000  0.6666666666666666  0.3694567545157579   F   F   F
  0.3333333333333333  0.6666666666666666  0.3694567545157579   F   F   F
  0.6666666666666667  0.6666666666666666  0.3694567545157579   F   F   F
  0.1104016272478019  0.1114658530427654  0.4648472680775880   T   T   T
  0.4449247008561403  0.1108242464737419  0.4645150960393348   T   T   T
  0.7788196686682995  0.1105416213394122  0.4650147881804352   T   T   T
  0.1105025736222806  0.4444741385997893  0.4638135380956186   T   T   T
  0.4446672498992821  0.4443330417170254  0.4634439334189657   T   T   T
  0.7788196686682995  0.4439720433256211  0.4650147881804348   T   T   T
  0.1105025736222805  0.7783566211112632  0.4638135380956186   T   T   T
  0.4449247008561406  0.7775843860034504  0.4645150960393358   T   T   T
  0.7779185364533606  0.7777073984399854  0.4657859094869202   T   T   T
 -0.1109226607584876  0.2221279970459093  0.5589263694461083   T   T   T
  0.2227657134107070  0.2225670942259245  0.5582308720777187   T   T   T
  0.5550936111053530  0.2227854852415888  0.5585060031143475   T   T   T
 -0.1108235535583421  0.5558162069447539  0.5596217857680540   T   T   T
  0.2218398016033332  0.5557467658649999  0.5568477650733191   T   T   T
  0.5550936111053528  0.5554542369863892  0.5585060031143484   T   T   T
 -0.1108235535583406  0.8883406799469193  0.5596217857680543   T   T   T
  0.2227657134107069  0.8880005256966987  0.5582308720777187   T   T   T
  0.5552019759558136  0.8890656786887576  0.5589908494213747   T   T   T
  0.0006618601977901 -0.0006571618941223  0.6535988938601659   T   T   T
  0.3330389725107796  0.0001471804112760  0.6534082197956025   T   T   T
  0.6658097256068704  0.0009742474283760  0.6538663391808078   T   T   T
  0.0006618601977906  0.3333286350296630  0.6535988938601659   T   T   T
  0.3329844557634047  0.3324207586335426  0.6513452894825591   T   T   T
  0.6674130887758445  0.3329601222787433  0.6553483415612267   T   T   T
 -0.0008273036305299  0.6670803184819316  0.6566422358331693   T   T   T
  0.3329844557634057  0.6679281189363832  0.6513452894825591   T   T   T
  0.6658097256068689  0.6665493602980849  0.6538663391808058   T   T   T
  0.3332520894168341  0.5000406219582491  0.7506203219945822   T   T   T
