Au Hg
 1.0000000000000000
     8.6549870017233435    0.0000000000000000    0.0000000000000000
     4.3274935008616717    7.4954386129165247    0.0000000000000000
     0.0000000000000000    0.0000000000000000   27.0667672948810178
 Au  Hg 
  36   1
Selective dynamics
Direct
  0.0000000000000000  0.0000000000000000  0.3694567545157579   F   F   F
  0.3333333333333333  0.0000000000000000  0.3694567545157579   F   F   F
  0.6666666666666666  0.0000000000000000  0.3694567545157579   F   F   F
  0.0000000000000000  0.3333333333333333  0.3694567545157579   F   F   F
  0.3333333333333334  0.3333333333333333  0.3694567545157579   F   F   F
  0.6666666666666666  0.3333333333333333  0.3694567545157579   F   F   F
  0.0000000000000000  0.6666666666666666  0.3694567545157579   F   F   F
  0.3333333333333333  0.6666666666666666  0.3694567545157579   F   F   F
  0.6666666666666667  0.6666666666666666  0.3694567545157579   F   F   F
  0.1105537654279505  0.1115930503361684  0.4647759386789172   T   T   T
  0.4445198509025476  0.1115930503361692  0.4647759386789172   T   T   T
  0.7777777777777776  0.1111111111111115  0.4658586582007766   T   T   T
  0.1111111111111109  0.4444444444444451  0.4656955038933157   T   T   T
  0.4445198509025481  0.4438870987612845  0.4647759386789175   T   T   T
  0.7782597170028376  0.4438870987612841  0.4647759386789172   T   T   T
  0.1105537654279510  0.7778531842358816  0.4647759386789181   T   T   T
  0.4444444444444444  0.7777777777777778  0.4637649791130903   T   T   T
  0.7782597170028339  0.7778531842358826  0.4647759386789176   T   T   T
 -0.1111521997144155  0.2221811336189181  0.5592091082200852   T   T   T
  0.2226833072870060  0.2213000520926546  0.5587513496819548   T   T   T
  0.5556377327621638  0.2221811336189189  0.5592091082200852   T   T   T
 -0.1120332812406804  0.5560166406203402  0.5587513496819548   T   T   T
  0.2226833072870072  0.5560166406203415  0.5587513496819557   T   T   T
  0.5554558557226376  0.5557549552213915  0.5586059711430829   T   T   T
 -0.1111521997144164  0.8889710660954996  0.5592091082200863   T   T   T
  0.2224216218880564  0.8887891890559732  0.5586059711430834   T   T   T
  0.5554558557226377  0.8887891890559727  0.5586059711430834   T   T   T
  0.0006086972241805 -0.0003043486120903  0.6547558090115011   T   T   T
  0.3330989973377703  0.0004686719911260  0.6544929545961446   T   T   T
  0.6663623180545750 -0.0003043486120903  0.6547558090115011   T   T   T
  0.0000192241173441  0.3333525574506762  0.6537091758195596   T   T   T
  0.3332948850986466  0.3333525574506765  0.6537091758195607   T   T   T
  0.6663623180545761  0.3339420305575143  0.6547558090114979   T   T   T
  0.0000192241173439  0.6666282184319789  0.6537091758195607   T   T   T
  0.3330989973377697  0.6664323306711035  0.6544929545961446   T   T   T
  0.6671353386577934  0.6664323306711019  0.6544929545961446   T   T   T
  0.4444444444444444 -0.2222222222222222  0.7500221279268118   T   T   T
