Au Hg
 1.0000000000000000
     8.6549870017233435    0.0000000000000000    0.0000000000000000
     4.3274935008616717    7.4954386129165247    0.0000000000000000
     0.0000000000000000    0.0000000000000000   27.0667672948810178
 Au  Hg 
  36   1
Selective dynamics
Direct
  0.0000000000000000  0.0000000000000000  0.3694567545157579   F   F   F
  0.3333333333333333  0.0000000000000000  0.3694567545157579   F   F   F
  0.6666666666666666  0.0000000000000000  0.3694567545157579   F   F   F
  0.0000000000000000  0.3333333333333333  0.3694567545157579   F   F   F
  0.3333333333333334  0.3333333333333333  0.3694567545157579   F   F   F
  0.6666666666666666  0.3333333333333333  0.3694567545157579   F   F   F
  0.0000000000000000  0.6666666666666666  0.3694567545157579   F   F   F
  0.3333333333333333  0.6666666666666666  0.3694567545157579   F   F   F
  0.6666666666666667  0.6666666666666666  0.3694567545157579   F   F   F
  0.1111111111111115  0.1111111111111113  0.4658586582007766   T   T   T
  0.4438870987612843  0.1115930503361685  0.4647759386789177   T   T   T
  0.7778531842358808  0.1115930503361677  0.4647759386789177   T   T   T
  0.1115930503361688  0.4438870987612839  0.4647759386789181   T   T   T
  0.4444444444444444  0.4444444444444445  0.4656955038933157   T   T   T
  0.7778531842358795  0.4438870987612841  0.4647759386789182   T   T   T
  0.1115930503361688  0.7778531842358815  0.4647759386789179   T   T   T
  0.4438870987612838  0.7778531842358810  0.4647759386789182   T   T   T
  0.7777777777777777  0.7777777777777778  0.4637649791130897   T   T   T
 -0.1110289339045025  0.2221811336189178  0.5592091082200861   T   T   T
  0.2221811336189187  0.2221811336189180  0.5592091082200870   T   T   T
  0.5560166406203395  0.2213000520926540  0.5587513496819563   T   T   T
 -0.1112108109440282  0.5557549552213897  0.5586059711430837   T   T   T
  0.2213000520926540  0.5560166406203394  0.5587513496819559   T   T   T
  0.5560166406203407  0.5560166406203396  0.5587513496819555   T   T   T
 -0.1112108109440282  0.8887891890559718  0.5586059711430837   T   T   T
  0.2221811336189178  0.8889710660954977  0.5592091082200866   T   T   T
  0.5557549552213918  0.8887891890559706  0.5586059711430837   T   T   T
 -0.0003043486120908 -0.0003043486120899  0.6547558090115017   T   T   T
  0.3339420305575135 -0.0003043486120901  0.6547558090115017   T   T   T
  0.6664323306711032  0.0004686719911269  0.6544929545961422   T   T   T
 -0.0003043486120901  0.3339420305575141  0.6547558090115017   T   T   T
  0.3333525574506769  0.3333525574506774  0.6537091758195624   T   T   T
  0.6666282184319793  0.3333525574506774  0.6537091758195621   T   T   T
  0.0004686719911258  0.6664323306711036  0.6544929545961422   T   T   T
  0.3333525574506771  0.6666282184319791  0.6537091758195621   T   T   T
  0.6664323306711033  0.6664323306711036  0.6544929545961422   T   T   T
  0.7777777777777777 -0.2222222222222222  0.7500221279268090   T   T   T
