Au Hg
 1.0000000000000000
     8.6549870017233435    0.0000000000000000    0.0000000000000000
     4.3274935008616717    7.4954386129165247    0.0000000000000000
     0.0000000000000000    0.0000000000000000   27.0667672948810178
 Au  Hg 
  36   1
Selective dynamics
Direct
  0.0000000000000000  0.0000000000000000  0.3694567545157579   F   F   F
  0.3333333333333333  0.0000000000000000  0.3694567545157579   F   F   F
  0.6666666666666666  0.0000000000000000  0.3694567545157579   F   F   F
  0.0000000000000000  0.3333333333333333  0.3694567545157579   F   F   F
  0.3333333333333334  0.3333333333333333  0.3694567545157579   F   F   F
  0.6666666666666666  0.3333333333333333  0.3694567545157579   F   F   F
  0.0000000000000000  0.6666666666666666  0.3694567545157579   F   F   F
  0.3333333333333333  0.6666666666666666  0.3694567545157579   F   F   F
  0.6666666666666667  0.6666666666666666  0.3694567545157579   F   F   F
  0.1110280587451927  0.1112772158429474  0.4639150139039919   T   T   T
  0.4444440679486881  0.1111107346153560  0.4652972465161171   T   T   T
  0.7777785307692886  0.1111107346153555  0.4652972465161164   T   T   T
  0.1105392535432281  0.4447303732283857  0.4653851897142461   T   T   T
  0.4444440679486880  0.4444451974359573  0.4652972465161164   T   T   T
  0.7780637065617174  0.4447303732283860  0.4653851897142461   T   T   T
  0.1110280587451924  0.7776947254118606  0.4639150139039917   T   T   T
  0.4446105491762792  0.7776947254118605  0.4639150139039919   T   T   T
  0.7780637065617195  0.7772059202098941  0.4653851897142458   T   T   T
 -0.1109858547240537  0.2217546830414042  0.5590265894428076   T   T   T
  0.2225645050159827  0.2217546830414042  0.5590265894428077   T   T   T
  0.5555555555555552  0.2222222222222227  0.5583641040162756   T   T   T
 -0.1111111111111111  0.5555555555555555  0.5586222832510943   T   T   T
  0.2225645050159838  0.5556808119426124  0.5590265894428069   T   T   T
  0.5550880163747363  0.5556808119426142  0.5590265894428076   T   T   T
 -0.1109858547240534  0.8892311716826505  0.5590265894428069   T   T   T
  0.2222222222222222  0.8888888888888888  0.5574406064159163   T   T   T
  0.5550880163747365  0.8892311716826518  0.5590265894428070   T   T   T
  0.0002361462536383 -0.0001180731268177  0.6548194046110063   T   T   T
  0.3332152602065129 -0.0001180731268184  0.6548194046110065   T   T   T
  0.6666119151230772  0.0001095030871788  0.6538670160713828   T   T   T
  0.0002027965588482  0.3329277402156377  0.6541794449453530   T   T   T
  0.3334428364205086  0.3332785817897468  0.6538670160713828   T   T   T
  0.6666119151230776  0.3332785817897468  0.6538670160713828   T   T   T
  0.0002027965588475  0.6668694632255171  0.6541794449453530   T   T   T
  0.3332152602065130  0.6669028129203073  0.6548194046110063   T   T   T
  0.6662610735489686  0.6668694632255167  0.6541794449453530   T   T   T
  0.2222222222222222 -0.1111111111111111  0.7507082806706060   T   T   T
