Au Hg
 1.0000000000000000
     8.6549870017233435    0.0000000000000000    0.0000000000000000
     4.3274935008616717    7.4954386129165247    0.0000000000000000
     0.0000000000000000    0.0000000000000000   27.0667672948810178
 Au  Hg 
  36   1
Selective dynamics
Direct
  0.0000000000000000  0.0000000000000000  0.3694567545157579   F   F   F
  0.3333333333333333  0.0000000000000000  0.3694567545157579   F   F   F
  0.6666666666666666  0.0000000000000000  0.3694567545157579   F   F   F
  0.0000000000000000  0.3333333333333333  0.3694567545157579   F   F   F
  0.3333333333333334  0.3333333333333333  0.3694567545157579   F   F   F
  0.6666666666666666  0.3333333333333333  0.3694567545157579   F   F   F
  0.0000000000000000  0.6666666666666666  0.3694567545157579   F   F   F
  0.3333333333333333  0.6666666666666666  0.3694567545157579   F   F   F
  0.6666666666666667  0.6666666666666666  0.3694567545157579   F   F   F
  0.1111865175692147  0.1105537654279512  0.4647759386789181   T   T   T
  0.4449263836695027  0.1105537654279507  0.4647759386789186   T   T   T
  0.7777777777777777  0.1111111111111114  0.4656955038933153   T   T   T
  0.1111111111111125  0.4444444444444437  0.4637649791130905   T   T   T
  0.4449263836695023  0.4445198509025476  0.4647759386789181   T   T   T
  0.7772204320946183  0.4445198509025476  0.4647759386789181   T   T   T
  0.1111865175692154  0.7782597170028344  0.4647759386789186   T   T   T
  0.4444444444444444  0.7777777777777778  0.4658586582007751   T   T   T
  0.7772204320946187  0.7782597170028341  0.4647759386789186   T   T   T
 -0.1106500260463269  0.2226833072870071  0.5587513496819548   T   T   T
  0.2221225223893044  0.2224216218880578  0.5586059711430851   T   T   T
  0.5546333854259858  0.2226833072870077  0.5587513496819548   T   T   T
 -0.1109117114452775  0.5554558557226390  0.5586059711430851   T   T   T
  0.2221225223893044  0.5554558557226399  0.5586059711430850   T   T   T
  0.5555144669522504  0.5556377327621660  0.5592091082200851   T   T   T
 -0.1106500260463261  0.8879667187593201  0.5587513496819553   T   T   T
  0.2223043994288318  0.8888478002855854  0.5592091082200860   T   T   T
  0.5555144669522504  0.8888478002855854  0.5592091082200861   T   T   T
 -0.0000384482346870  0.0000192241173437  0.6537091758195591   T   T   T
  0.3330289847212429  0.0006086972241808  0.6547558090115018   T   T   T
  0.6666858907840107  0.0000192241173434  0.6537091758195591   T   T   T
 -0.0002343359955630  0.3330989973377707  0.6544929545961444   T   T   T
  0.3338020053244599  0.3330989973377703  0.6544929545961453   T   T   T
  0.6666858907840104  0.3332948850986456  0.6537091758195589   T   T   T
 -0.0002343359955627  0.6671353386577921  0.6544929545961443   T   T   T
  0.3330289847212435  0.6663623180545764  0.6547558090115010   T   T   T
  0.6672753638908462  0.6663623180545767  0.6547558090115010   T   T   T
  0.1111111111111111  0.4444444444444444  0.7500221279268126   T   T   T
