Au Hg
 1.0000000000000000
     8.6549870017233435    0.0000000000000000    0.0000000000000000
     4.3274935008616717    7.4954386129165247    0.0000000000000000
     0.0000000000000000    0.0000000000000000   27.0667672948810178
 Au  Hg 
  36   1
Selective dynamics
Direct
  0.0000000000000000  0.0000000000000000  0.3694567545157579   F   F   F
  0.3333333333333333  0.0000000000000000  0.3694567545157579   F   F   F
  0.6666666666666666  0.0000000000000000  0.3694567545157579   F   F   F
  0.0000000000000000  0.3333333333333333  0.3694567545157579   F   F   F
  0.3333333333333334  0.3333333333333333  0.3694567545157579   F   F   F
  0.6666666666666666  0.3333333333333333  0.3694567545157579   F   F   F
  0.0000000000000000  0.6666666666666666  0.3694567545157579   F   F   F
  0.3333333333333333  0.6666666666666666  0.3694567545157579   F   F   F
  0.6666666666666667  0.6666666666666666  0.3694567545157579   F   F   F
  0.1111118641026231  0.1111107346153548  0.4652972465161161   T   T   T
  0.4443613920785266  0.1112772158429469  0.4639150139039910   T   T   T
  0.7777774012820222  0.1111107346153549  0.4652972465161161   T   T   T
  0.1113970398950529  0.4447303732283857  0.4653851897142466   T   T   T
  0.4438725868765620  0.4447303732283855  0.4653851897142466   T   T   T
  0.7777774012820217  0.4444451974359566  0.4652972465161161   T   T   T
  0.1113970398950527  0.7772059202098947  0.4653851897142454   T   T   T
  0.4443613920785275  0.7776947254118594  0.4639150139039910   T   T   T
  0.7779438825096160  0.7776947254118595  0.4639150139039910   T   T   T
 -0.1111111111111122  0.2222222222222230  0.5583641040162742   T   T   T
  0.2223474786092797  0.2217546830414034  0.5590265894428074   T   T   T
  0.5558978383493168  0.2217546830414033  0.5590265894428074   T   T   T
 -0.1115786502919303  0.5556808119426145  0.5590265894428070   T   T   T
  0.2222222222222223  0.5555555555555555  0.5586222832510945   T   T   T
  0.5558978383493173  0.5556808119426131  0.5590265894428074   T   T   T
 -0.1115786502919296  0.8892311716826486  0.5590265894428074   T   T   T
  0.2223474786092788  0.8892311716826503  0.5590265894428074   T   T   T
  0.5555555555555556  0.8888888888888888  0.5574406064159144   T   T   T
 -0.0000547515435890  0.0001095030871776  0.6538670160713812   T   T   T
  0.3335694795869728 -0.0001180731268196  0.6548194046110070   T   T   T
  0.6665485935398466 -0.0001180731268194  0.6548194046110070   T   T   T
 -0.0000547515435891  0.3332785817897452  0.6538670160713812   T   T   T
  0.3335361298921817  0.3329277402156366  0.6541794449453546   T   T   T
  0.6667761697538447  0.3332785817897443  0.6538670160713841   T   T   T
 -0.0004055931176975  0.6668694632255154  0.6541794449453546   T   T   T
  0.3335361298921823  0.6668694632255154  0.6541794449453546   T   T   T
  0.6665485935398473  0.6669028129203055  0.6548194046110070   T   T   T
  0.5555555555555556 -0.1111111111111111  0.7507082806706056   T   T   T
