Au Hg
 1.0000000000000000
     8.6549870017233435    0.0000000000000000    0.0000000000000000
     4.3274935008616717    7.4954386129165247    0.0000000000000000
     0.0000000000000000    0.0000000000000000   27.0667672948810178
 Au  Hg 
  36   1
Selective dynamics
Direct
  0.0000000000000000  0.0000000000000000  0.3694567545157579   F   F   F
  0.3333333333333333  0.0000000000000000  0.3694567545157579   F   F   F
  0.6666666666666666  0.0000000000000000  0.3694567545157579   F   F   F
  0.0000000000000000  0.3333333333333333  0.3694567545157579   F   F   F
  0.3333333333333334  0.3333333333333333  0.3694567545157579   F   F   F
  0.6666666666666666  0.3333333333333333  0.3694567545157579   F   F   F
  0.0000000000000000  0.6666666666666666  0.3694567545157579   F   F   F
  0.3333333333333333  0.6666666666666666  0.3694567545157579   F   F   F
  0.6666666666666667  0.6666666666666666  0.3694567545157579   F   F   F
  0.1113970398950529  0.1105392535432275  0.4653851897142450   T   T   T
  0.4443613920785271  0.1110280587451929  0.4639150139039916   T   T   T
  0.7779438825096131  0.1110280587451927  0.4639150139039916   T   T   T
  0.1111118641026233  0.4444440679486883  0.4652972465161166   T   T   T
  0.4443613920785268  0.4446105491762797  0.4639150139039914   T   T   T
  0.7777774012820214  0.4444440679486878  0.4652972465161156   T   T   T
  0.1113970398950531  0.7780637065617183  0.4653851897142461   T   T   T
  0.4438725868765617  0.7780637065617184  0.4653851897142460   T   T   T
  0.7777774012820217  0.7777785307692898  0.4652972465161166   T   T   T
 -0.1115786502919300  0.2225645050159825  0.5590265894428067   T   T   T
  0.2223474786092798  0.2225645050159834  0.5590265894428068   T   T   T
  0.5555555555555558  0.2222222222222218  0.5574406064159158   T   T   T
 -0.1111111111111117  0.5555555555555555  0.5583641040162726   T   T   T
  0.2223474786092810  0.5550880163747364  0.5590265894428076   T   T   T
  0.5558978383493158  0.5550880163747361  0.5590265894428076   T   T   T
 -0.1115786502919296  0.8890141452759452  0.5590265894428076   T   T   T
  0.2222222222222222  0.8888888888888888  0.5586222832510950   T   T   T
  0.5558978383493155  0.8890141452759456  0.5590265894428076   T   T   T
 -0.0004055931176978  0.0002027965588490  0.6541794449453554   T   T   T
  0.3335361298921813  0.0002027965588494  0.6541794449453554   T   T   T
  0.6665485935398470  0.0002361462536393  0.6548194046110076   T   T   T
 -0.0000547515435894  0.3334428364205111  0.6538670160713803   T   T   T
  0.3335694795869719  0.3332152602065147  0.6548194046110076   T   T   T
  0.6665485935398467  0.3332152602065140  0.6548194046110076   T   T   T
 -0.0000547515435884  0.6666119151230773  0.6538670160713803   T   T   T
  0.3335361298921816  0.6662610735489700  0.6541794449453554   T   T   T
  0.6667761697538437  0.6666119151230773  0.6538670160713804   T   T   T
  0.5555555555555556  0.2222222222222222  0.7507082806706064   T   T   T
