Au Hg
 1.0000000000000000
     8.6549870017233435    0.0000000000000000    0.0000000000000000
     4.3274935008616717    7.4954386129165247    0.0000000000000000
     0.0000000000000000    0.0000000000000000   27.0667672948810178
 Au  Hg 
  36   1
Selective dynamics
Direct
  0.0000000000000000  0.0000000000000000  0.3694567545157579   F   F   F
  0.3333333333333333  0.0000000000000000  0.3694567545157579   F   F   F
  0.6666666666666666  0.0000000000000000  0.3694567545157579   F   F   F
  0.0000000000000000  0.3333333333333333  0.3694567545157579   F   F   F
  0.3333333333333334  0.3333333333333333  0.3694567545157579   F   F   F
  0.6666666666666666  0.3333333333333333  0.3694567545157579   F   F   F
  0.0000000000000000  0.6666666666666666  0.3694567545157579   F   F   F
  0.3333333333333333  0.6666666666666666  0.3694567545157579   F   F   F
  0.6666666666666667  0.6666666666666666  0.3694567545157579   F   F   F
  0.1113970398950530  0.1113970398950518  0.4653851897142454   T   T   T
  0.4438725868765620  0.1113970398950520  0.4653851897142454   T   T   T
  0.7777774012820230  0.1111118641026228  0.4652972465161169   T   T   T
  0.1113970398950519  0.4438725868765617  0.4653851897142459   T   T   T
  0.4443613920785260  0.4443613920785260  0.4639150139039914   T   T   T
  0.7779438825096129  0.4443613920785267  0.4639150139039916   T   T   T
  0.1111118641026240  0.7777774012820213  0.4652972465161169   T   T   T
  0.4443613920785263  0.7779438825096140  0.4639150139039924   T   T   T
  0.7777774012820201  0.7777774012820219  0.4652972465161173   T   T   T
 -0.1115786502919282  0.2223474786092786  0.5590265894428086   T   T   T
  0.2222222222222232  0.2222222222222227  0.5586222832510930   T   T   T
  0.5558978383493168  0.2223474786092789  0.5590265894428074   T   T   T
 -0.1115786502919288  0.5558978383493181  0.5590265894428081   T   T   T
  0.2223474786092789  0.5558978383493183  0.5590265894428074   T   T   T
  0.5555555555555560  0.5555555555555555  0.5574406064159161   T   T   T
 -0.1111111111111107  0.8888888888888888  0.5583641040162761   T   T   T
  0.2223474786092793  0.8884213497080710  0.5590265894428071   T   T   T
  0.5558978383493176  0.8884213497080710  0.5590265894428071   T   T   T
 -0.0000547515435879 -0.0000547515435896  0.6538670160713850   T   T   T
  0.3335361298921824 -0.0004055931176982  0.6541794449453516   T   T   T
  0.6667761697538446 -0.0000547515435894  0.6538670160713849   T   T   T
 -0.0004055931176970  0.3335361298921810  0.6541794449453516   T   T   T
  0.3335361298921832  0.3335361298921810  0.6541794449453516   T   T   T
  0.6665485935398473  0.3335694795869720  0.6548194046110063   T   T   T
 -0.0000547515435882  0.6667761697538431  0.6538670160713849   T   T   T
  0.3335694795869734  0.6665485935398454  0.6548194046110063   T   T   T
  0.6665485935398473  0.6665485935398465  0.6548194046110063   T   T   T
  0.5555555555555556  0.5555555555555555  0.7507082806706056   T   T   T
