Au Hg
 1.0000000000000000
     8.6549870017233435    0.0000000000000000    0.0000000000000000
     4.3274935008616717    7.4954386129165247    0.0000000000000000
     0.0000000000000000    0.0000000000000000   27.0667672948810178
 Au  Hg 
  36   1
Selective dynamics
Direct
  0.0000000000000000  0.0000000000000000  0.3694567545157579   F   F   F
  0.3333333333333333  0.0000000000000000  0.3694567545157579   F   F   F
  0.6666666666666666  0.0000000000000000  0.3694567545157579   F   F   F
  0.0000000000000000  0.3333333333333333  0.3694567545157579   F   F   F
  0.3333333333333334  0.3333333333333333  0.3694567545157579   F   F   F
  0.6666666666666666  0.3333333333333333  0.3694567545157579   F   F   F
  0.0000000000000000  0.6666666666666666  0.3694567545157579   F   F   F
  0.3333333333333333  0.6666666666666666  0.3694567545157579   F   F   F
  0.6666666666666667  0.6666666666666666  0.3694567545157579   F   F   F
  0.1105392535432286  0.1113970398950524  0.4653851897142461   T   T   T
  0.4444440679486886  0.1111118641026227  0.4652972465161168   T   T   T
  0.7780637065617200  0.1113970398950516  0.4653851897142461   T   T   T
  0.1110280587451932  0.4443613920785262  0.4639150139039916   T   T   T
  0.4446105491762812  0.4443613920785251  0.4639150139039918   T   T   T
  0.7780637065617192  0.4438725868765614  0.4653851897142461   T   T   T
  0.1110280587451927  0.7779438825096145  0.4639150139039916   T   T   T
  0.4444440679486886  0.7777774012820208  0.4652972465161161   T   T   T
  0.7777785307692892  0.7777774012820218  0.4652972465161160   T   T   T
 -0.1111111111111107  0.2222222222222221  0.5586222832510949   T   T   T
  0.2225645050159825  0.2223474786092805  0.5590265894428075   T   T   T
  0.5550880163747360  0.2223474786092798  0.5590265894428079   T   T   T
 -0.1109858547240530  0.5558978383493159  0.5590265894428075   T   T   T
  0.2222222222222223  0.5555555555555555  0.5574406064159159   T   T   T
  0.5550880163747378  0.5558978383493165  0.5590265894428075   T   T   T
 -0.1109858547240535  0.8884213497080714  0.5590265894428075   T   T   T
  0.2225645050159836  0.8884213497080697  0.5590265894428075   T   T   T
  0.5555555555555556  0.8888888888888888  0.5583641040162737   T   T   T
  0.0002027965588495 -0.0004055931176983  0.6541794449453547   T   T   T
  0.3334428364205111 -0.0000547515435895  0.6538670160713819   T   T   T
  0.6666119151230789 -0.0000547515435896  0.6538670160713819   T   T   T
  0.0002027965588486  0.3335361298921817  0.6541794449453547   T   T   T
  0.3332152602065136  0.3335694795869727  0.6548194046110063   T   T   T
  0.6662610735489696  0.3335361298921813  0.6541794449453547   T   T   T
  0.0002361462536396  0.6665485935398465  0.6548194046110063   T   T   T
  0.3332152602065146  0.6665485935398455  0.6548194046110063   T   T   T
  0.6666119151230785  0.6667761697538429  0.6538670160713819   T   T   T
  0.2222222222222223  0.5555555555555555  0.7507082806706055   T   T   T
