Au Hg
 1.0000000000000000
     8.6549870017233435    0.0000000000000000    0.0000000000000000
     4.3274935008616717    7.4954386129165247    0.0000000000000000
     0.0000000000000000    0.0000000000000000   27.0667672948810178
 Au  Hg 
  36   1
Selective dynamics
Direct
  0.0000000000000000  0.0000000000000000  0.3694567545157579   F   F   F
  0.3333333333333333  0.0000000000000000  0.3694567545157579   F   F   F
  0.6666666666666666  0.0000000000000000  0.3694567545157579   F   F   F
  0.0000000000000000  0.3333333333333333  0.3694567545157579   F   F   F
  0.3333333333333334  0.3333333333333333  0.3694567545157579   F   F   F
  0.6666666666666666  0.3333333333333333  0.3694567545157579   F   F   F
  0.0000000000000000  0.6666666666666666  0.3694567545157579   F   F   F
  0.3333333333333333  0.6666666666666666  0.3694567545157579   F   F   F
  0.6666666666666667  0.6666666666666666  0.3694567545157579   F   F   F
  0.1105537654279515  0.1111865175692132  0.4647759386789179   T   T   T
  0.4444444444444450  0.1111111111111099  0.4637649791130908   T   T   T
  0.7782597170028343  0.1111865175692141  0.4647759386789179   T   T   T
  0.1105537654279510  0.4449263836694999  0.4647759386789179   T   T   T
  0.4445198509025493  0.4449263836695003  0.4647759386789179   T   T   T
  0.7777777777777782  0.4444444444444434  0.4658586582007779   T   T   T
  0.1111111111111120  0.7777777777777759  0.4656955038933149   T   T   T
  0.4445198509025487  0.7772204320946161  0.4647759386789179   T   T   T
  0.7782597170028341  0.7772204320946163  0.4647759386789174   T   T   T
 -0.1111521997144162  0.2223043994288318  0.5592091082200872   T   T   T
  0.2224216218880555  0.2221225223893054  0.5586059711430842   T   T   T
  0.5554558557226382  0.2221225223893056  0.5586059711430842   T   T   T
 -0.1111521997144159  0.5555144669522509  0.5592091082200870   T   T   T
  0.2226833072870065  0.5546333854259869  0.5587513496819541   T   T   T
  0.5556377327621649  0.5555144669522512  0.5592091082200872   T   T   T
 -0.1120332812406793  0.8893499739536724  0.5587513496819536   T   T   T
  0.2226833072870072  0.8893499739536742  0.5587513496819541   T   T   T
  0.5554558557226386  0.8890882885547230  0.5586059711430836   T   T   T
  0.0000192241173431 -0.0000384482346867  0.6537091758195587   T   T   T
  0.3330989973377695 -0.0002343359955621  0.6544929545961431   T   T   T
  0.6671353386577926 -0.0002343359955627  0.6544929545961425   T   T   T
  0.0006086972241799  0.3330289847212439  0.6547558090115048   T   T   T
  0.3330989973377700  0.3338020053244599  0.6544929545961434   T   T   T
  0.6663623180545756  0.3330289847212436  0.6547558090115048   T   T   T
  0.0000192241173432  0.6666858907840107  0.6537091758195587   T   T   T
  0.3332948850986448  0.6666858907840123  0.6537091758195587   T   T   T
  0.6663623180545760  0.6672753638908480  0.6547558090115048   T   T   T
  0.4444444444444446  0.1111111111111109  0.7500221279268097   T   T   T
