Au Hg
 1.0000000000000000
     8.6549870017233435    0.0000000000000000    0.0000000000000000
     4.3274935008616717    7.4954386129165247    0.0000000000000000
     0.0000000000000000    0.0000000000000000   27.0667672948810178
 Au  Hg 
  36   1
Selective dynamics
Direct
  0.0000000000000000  0.0000000000000000  0.3694567545157579   F   F   F
  0.3333333333333333  0.0000000000000000  0.3694567545157579   F   F   F
  0.6666666666666666  0.0000000000000000  0.3694567545157579   F   F   F
  0.0000000000000000  0.3333333333333333  0.3694567545157579   F   F   F
  0.3333333333333334  0.3333333333333333  0.3694567545157579   F   F   F
  0.6666666666666666  0.3333333333333333  0.3694567545157579   F   F   F
  0.0000000000000000  0.6666666666666666  0.3694567545157579   F   F   F
  0.3333333333333333  0.6666666666666666  0.3694567545157579   F   F   F
  0.6666666666666667  0.6666666666666666  0.3694567545157579   F   F   F
  0.1111111111111122  0.1111111111111096  0.4637649791130904   T   T   T
  0.4449263836695018  0.1111865175692137  0.4647759386789180   T   T   T
  0.7772204320946173  0.1111865175692131  0.4647759386789181   T   T   T
  0.1111865175692144  0.4449263836695008  0.4647759386789185   T   T   T
  0.4444444444444450  0.4444444444444431  0.4658586582007774   T   T   T
  0.7772204320946194  0.4449263836695003  0.4647759386789184   T   T   T
  0.1111865175692150  0.7772204320946144  0.4647759386789176   T   T   T
  0.4449263836695015  0.7772204320946158  0.4647759386789179   T   T   T
  0.7777777777777787  0.7777777777777759  0.4656955038933138   T   T   T
 -0.1109117114452763  0.2221225223893039  0.5586059711430849   T   T   T
  0.2221225223893062  0.2221225223893040  0.5586059711430849   T   T   T
  0.5555144669522515  0.2223043994288303  0.5592091082200877   T   T   T
 -0.1106500260463261  0.5546333854259855  0.5587513496819536   T   T   T
  0.2223043994288330  0.5555144669522495  0.5592091082200877   T   T   T
  0.5555144669522516  0.5555144669522494  0.5592091082200877   T   T   T
 -0.1106500260463263  0.8893499739536720  0.5587513496819527   T   T   T
  0.2221225223893060  0.8890882885547213  0.5586059711430836   T   T   T
  0.5546333854259861  0.8893499739536720  0.5587513496819527   T   T   T
 -0.0002343359955638 -0.0002343359955628  0.6544929545961424   T   T   T
  0.3338020053244597 -0.0002343359955626  0.6544929545961424   T   T   T
  0.6666858907840106 -0.0000384482346881  0.6537091758195572   T   T   T
 -0.0002343359955641  0.3338020053244606  0.6544929545961429   T   T   T
  0.3330289847212424  0.3330289847212433  0.6547558090115048   T   T   T
  0.6672753638908475  0.3330289847212432  0.6547558090115048   T   T   T
 -0.0000384482346884  0.6666858907840111  0.6537091758195600   T   T   T
  0.3330289847212430  0.6672753638908473  0.6547558090115048   T   T   T
  0.6666858907840101  0.6666858907840109  0.6537091758195600   T   T   T
  0.1111111111111111  0.1111111111111111  0.7500221279268087   T   T   T
