Au Hg
 1.0000000000000000
     8.6549870017233435    0.0000000000000000    0.0000000000000000
     4.3274935008616717    7.4954386129165247    0.0000000000000000
     0.0000000000000000    0.0000000000000000   27.0667672948810178
 Au  Hg 
  36   1
Selective dynamics
Direct
  0.0000000000000000  0.0000000000000000  0.3694567545157579   F   F   F
  0.3333333333333333  0.0000000000000000  0.3694567545157579   F   F   F
  0.6666666666666666  0.0000000000000000  0.3694567545157579   F   F   F
  0.0000000000000000  0.3333333333333333  0.3694567545157579   F   F   F
  0.3333333333333334  0.3333333333333333  0.3694567545157579   F   F   F
  0.6666666666666666  0.3333333333333333  0.3694567545157579   F   F   F
  0.0000000000000000  0.6666666666666666  0.3694567545157579   F   F   F
  0.3333333333333333  0.6666666666666666  0.3694567545157579   F   F   F
  0.6666666666666667  0.6666666666666666  0.3694567545157579   F   F   F
  0.1112772158429465  0.1110280587451935  0.4639150139039918   T   T   T
  0.4447303732283855  0.1105392535432289  0.4653851897142463   T   T   T
  0.7776947254118589  0.1110280587451939  0.4639150139039923   T   T   T
  0.1111107346153549  0.4444440679486883  0.4652972465161169   T   T   T
  0.4444451974359557  0.4444440679486886  0.4652972465161169   T   T   T
  0.7776947254118595  0.4446105491762811  0.4639150139039923   T   T   T
  0.1111107346153546  0.7777785307692908  0.4652972465161169   T   T   T
  0.4447303732283844  0.7780637065617193  0.4653851897142460   T   T   T
  0.7772059202098951  0.7780637065617195  0.4653851897142463   T   T   T
 -0.1111111111111116  0.2222222222222230  0.5574406064159161   T   T   T
  0.2217546830414035  0.2225645050159840  0.5590265894428085   T   T   T
  0.5556808119426130  0.2225645050159835  0.5590265894428085   T   T   T
 -0.1107688283173503  0.5550880163747375  0.5590265894428085   T   T   T
  0.2222222222222223  0.5555555555555555  0.5583641040162756   T   T   T
  0.5556808119426131  0.5550880163747368  0.5590265894428068   T   T   T
 -0.1107688283173486  0.8890141452759464  0.5590265894428085   T   T   T
  0.2217546830414041  0.8890141452759482  0.5590265894428068   T   T   T
  0.5555555555555556  0.8888888888888888  0.5586222832510952   T   T   T
 -0.0001180731268201  0.0002361462536402  0.6548194046110054   T   T   T
  0.3329277402156356  0.0002027965588497  0.6541794449453557   T   T   T
  0.6668694632255148  0.0002027965588495  0.6541794449453516   T   T   T
 -0.0001180731268201  0.3332152602065139  0.6548194046110054   T   T   T
  0.3332785817897441  0.3334428364205119  0.6538670160713835   T   T   T
  0.6669028129203060  0.3332152602065141  0.6548194046110054   T   T   T
  0.0001095030871771  0.6666119151230786  0.6538670160713835   T   T   T
  0.3332785817897459  0.6666119151230788  0.6538670160713784   T   T   T
  0.6668694632255150  0.6662610735489701  0.6541794449453557   T   T   T
 -0.1111111111111110  0.2222222222222222  0.7507082806706058   T   T   T
