Au Hg
 1.0000000000000000
     8.6549870017233435    0.0000000000000000    0.0000000000000000
     4.3274935008616717    7.4954386129165247    0.0000000000000000
     0.0000000000000000    0.0000000000000000   27.0667672948810178
 Au  Hg 
  36   1
Selective dynamics
Direct
  0.0000000000000000  0.0000000000000000  0.3694567545157579   F   F   F
  0.3333333333333333  0.0000000000000000  0.3694567545157579   F   F   F
  0.6666666666666666  0.0000000000000000  0.3694567545157579   F   F   F
  0.0000000000000000  0.3333333333333333  0.3694567545157579   F   F   F
  0.3333333333333334  0.3333333333333333  0.3694567545157579   F   F   F
  0.6666666666666666  0.3333333333333333  0.3694567545157579   F   F   F
  0.0000000000000000  0.6666666666666666  0.3694567545157579   F   F   F
  0.3333333333333333  0.6666666666666666  0.3694567545157579   F   F   F
  0.6666666666666667  0.6666666666666666  0.3694567545157579   F   F   F
  0.1111111111111110  0.1111111111111114  0.4656955038933155   T   T   T
  0.4445198509025475  0.1105537654279510  0.4647759386789175   T   T   T
  0.7782597170028351  0.1105537654279505  0.4647759386789175   T   T   T
  0.1105537654279503  0.4445198509025481  0.4647759386789175   T   T   T
  0.4444444444444450  0.4444444444444431  0.4637649791130904   T   T   T
  0.7782597170028340  0.4445198509025480  0.4647759386789175   T   T   T
  0.1105537654279505  0.7782597170028341  0.4647759386789175   T   T   T
  0.4445198509025486  0.7782597170028341  0.4647759386789175   T   T   T
  0.7777777777777777  0.7777777777777778  0.4658586582007773   T   T   T
 -0.1120332812406802  0.2226833072870069  0.5587513496819542   T   T   T
  0.2226833072870070  0.2226833072870073  0.5587513496819543   T   T   T
  0.5554558557226384  0.2224216218880564  0.5586059711430847   T   T   T
 -0.1111521997144148  0.5556377327621648  0.5592091082200872   T   T   T
  0.2224216218880569  0.5554558557226382  0.5586059711430851   T   T   T
  0.5554558557226397  0.5554558557226369  0.5586059711430850   T   T   T
 -0.1111521997144148  0.8888478002855842  0.5592091082200865   T   T   T
  0.2226833072870056  0.8879667187593202  0.5587513496819534   T   T   T
  0.5556377327621673  0.8888478002855841  0.5592091082200865   T   T   T
  0.0000192241173443  0.0000192241173429  0.6537091758195595   T   T   T
  0.3332948850986456  0.0000192241173434  0.6537091758195595   T   T   T
  0.6663623180545764  0.0006086972241805  0.6547558090115013   T   T   T
  0.0000192241173436  0.3332948850986451  0.6537091758195595   T   T   T
  0.3330989973377692  0.3330989973377703  0.6544929545961459   T   T   T
  0.6671353386577926  0.3330989973377704  0.6544929545961432   T   T   T
  0.0006086972241808  0.6663623180545760  0.6547558090115031   T   T   T
  0.3330989973377701  0.6671353386577931  0.6544929545961430   T   T   T
  0.6663623180545794  0.6663623180545754  0.6547558090115031   T   T   T
  0.4444444444444444  0.4444444444444444  0.7500221279268111   T   T   T
