Au Hg
 1.0000000000000000
     8.6549870017233435    0.0000000000000000    0.0000000000000000
     4.3274935008616717    7.4954386129165247    0.0000000000000000
     0.0000000000000000    0.0000000000000000   27.0667672948810178
 Au  Hg 
  36   1
Selective dynamics
Direct
  0.0000000000000000  0.0000000000000000  0.3694567545157579   F   F   F
  0.3333333333333333  0.0000000000000000  0.3694567545157579   F   F   F
  0.6666666666666666  0.0000000000000000  0.3694567545157579   F   F   F
  0.0000000000000000  0.3333333333333333  0.3694567545157579   F   F   F
  0.3333333333333334  0.3333333333333333  0.3694567545157579   F   F   F
  0.6666666666666666  0.3333333333333333  0.3694567545157579   F   F   F
  0.0000000000000000  0.6666666666666666  0.3694567545157579   F   F   F
  0.3333333333333333  0.6666666666666666  0.3694567545157579   F   F   F
  0.6666666666666667  0.6666666666666666  0.3694567545157579   F   F   F
  0.1110280587451920  0.1110280587451933  0.4639150139039918   T   T   T
  0.4446105491762779  0.1110280587451931  0.4639150139039918   T   T   T
  0.7780637065617184  0.1105392535432278  0.4653851897142458   T   T   T
  0.1110280587451911  0.4446105491762804  0.4639150139039918   T   T   T
  0.4444440679486861  0.4444440679486883  0.4652972465161181   T   T   T
  0.7777785307692898  0.4444440679486883  0.4652972465161171   T   T   T
  0.1105392535432270  0.7780637065617183  0.4653851897142458   T   T   T
  0.4444440679486867  0.7777785307692905  0.4652972465161171   T   T   T
  0.7780637065617187  0.7780637065617183  0.4653851897142458   T   T   T
 -0.1109858547240553  0.2225645050159834  0.5590265894428086   T   T   T
  0.2222222222222212  0.2222222222222228  0.5574406064159169   T   T   T
  0.5550880163747370  0.2225645050159839  0.5590265894428086   T   T   T
 -0.1109858547240551  0.5550880163747379  0.5590265894428077   T   T   T
  0.2225645050159834  0.5550880163747384  0.5590265894428086   T   T   T
  0.5555555555555556  0.5555555555555555  0.5583641040162767   T   T   T
 -0.1111111111111113  0.8888888888888888  0.5586222832510943   T   T   T
  0.2225645050159832  0.8890141452759457  0.5590265894428086   T   T   T
  0.5550880163747365  0.8890141452759467  0.5590265894428077   T   T   T
  0.0002027965588483  0.0002027965588495  0.6541794449453524   T   T   T
  0.3332152602065135  0.0002361462536396  0.6548194046110049   T   T   T
  0.6662610735489689  0.0002027965588489  0.6541794449453524   T   T   T
  0.0002361462536391  0.3332152602065144  0.6548194046110049   T   T   T
  0.3332152602065140  0.3332152602065138  0.6548194046110049   T   T   T
  0.6666119151230778  0.3334428364205109  0.6538670160713854   T   T   T
  0.0002027965588484  0.6662610735489696  0.6541794449453524   T   T   T
  0.3334428364205089  0.6666119151230796  0.6538670160713854   T   T   T
  0.6666119151230762  0.6666119151230776  0.6538670160713842   T   T   T
  0.2222222222222222  0.2222222222222222  0.7507082806706051   T   T   T
