Au Hg
 1.0000000000000000
     8.6549870017233435    0.0000000000000000    0.0000000000000000
     4.3274935008616717    7.4954386129165247    0.0000000000000000
     0.0000000000000000    0.0000000000000000   27.0667672948810178
 Au  Hg 
  36   1
Selective dynamics
Direct
  0.0000000000000000  0.0000000000000000  0.3694567545157579   F   F   F
  0.3333333333333333  0.0000000000000000  0.3694567545157579   F   F   F
  0.6666666666666666  0.0000000000000000  0.3694567545157579   F   F   F
  0.0000000000000000  0.3333333333333333  0.3694567545157579   F   F   F
  0.3333333333333334  0.3333333333333333  0.3694567545157579   F   F   F
  0.6666666666666666  0.3333333333333333  0.3694567545157579   F   F   F
  0.0000000000000000  0.6666666666666666  0.3694567545157579   F   F   F
  0.3333333333333333  0.6666666666666666  0.3694567545157579   F   F   F
  0.6666666666666667  0.6666666666666666  0.3694567545157579   F   F   F
  0.1111195681731513  0.1111195681731519  0.4659731367776144   T   T   T
  0.4448779103773686  0.1102441792452627  0.4643115683838163   T   T   T
  0.7777608636536965  0.1111195681731516  0.4659731367776144   T   T   T
  0.1102441792452622  0.4448779103773689  0.4643115683838163   T   T   T
  0.4448779103773688  0.4448779103773686  0.4643115683838153   T   T   T
  0.7778340829587361  0.4443318340825277  0.4628607183240107   T   T   T
  0.1111195681731521  0.7777608636536958  0.4659731367776145   T   T   T
  0.4443318340825271  0.7778340829587366  0.4628607183240107   T   T   T
  0.7778340829587356  0.7778340829587362  0.4628607183240107   T   T   T
 -0.1113238568428935  0.2226477136857856  0.5600421795426259   T   T   T
  0.2224165655718004  0.2224165655717994  0.5595945889234840   T   T   T
  0.5551668688563991  0.2224165655717992  0.5595945889234840   T   T   T
 -0.1108007282780384  0.5554003641390185  0.5571503119752951   T   T   T
  0.2224165655718015  0.5551668688563971  0.5595945889234840   T   T   T
  0.5554003641390195  0.5554003641390184  0.5571503119752945   T   T   T
 -0.1113238568428929  0.8886761431571061  0.5600421795426259   T   T   T
  0.2226477136857865  0.8886761431571062  0.5600421795426259   T   T   T
  0.5554003641390198  0.8891992717219603  0.5571503119752946   T   T   T
 -0.0000000000000001 -0.0000000000000008  0.6541357515444233   T   T   T
  0.3337198965897246 -0.0002956934871818  0.6548787490494096   T   T   T
  0.6665757968974583 -0.0002956934871826  0.6548787490494096   T   T   T
 -0.0002956934871819  0.3337198965897236  0.6548787490494096   T   T   T
  0.3333333333333335  0.3333333333333329  0.6543608044972654   T   T   T
  0.6665757968974567  0.3337198965897241  0.6548787490494096   T   T   T
 -0.0002956934871812  0.6665757968974564  0.6548787490494096   T   T   T
  0.3337198965897245  0.6665757968974568  0.6548787490494096   T   T   T
  0.6666666666666667  0.6666666666666666  0.6483184539659604   T   T   T
  0.6666666666666667  0.6666666666666666  0.7590382605982363   T   T   T
