Au Hg
 1.0000000000000000
     8.6549870017233435    0.0000000000000000    0.0000000000000000
     4.3274935008616717    7.4954386129165247    0.0000000000000000
     0.0000000000000000    0.0000000000000000   27.0667672948810178
 Au  Hg 
  36   1
Selective dynamics
Direct
  0.0000000000000000  0.0000000000000000  0.3694567545157579   F   F   F
  0.3333333333333333  0.0000000000000000  0.3694567545157579   F   F   F
  0.6666666666666666  0.0000000000000000  0.3694567545157579   F   F   F
  0.0000000000000000  0.3333333333333333  0.3694567545157579   F   F   F
  0.3333333333333334  0.3333333333333333  0.3694567545157579   F   F   F
  0.6666666666666666  0.3333333333333333  0.3694567545157579   F   F   F
  0.0000000000000000  0.6666666666666666  0.3694567545157579   F   F   F
  0.3333333333333333  0.6666666666666666  0.3694567545157579   F   F   F
  0.6666666666666667  0.6666666666666666  0.3694567545157579   F   F   F
  0.1109985007491950  0.1111674162920676  0.4628607183240097   T   T   T
  0.4445007496254037  0.1111674162920682  0.4628607183240097   T   T   T
  0.7777862348398189  0.1110941969870289  0.4659731367776136   T   T   T
  0.1115445770440355  0.4435775125785956  0.4643115683838163   T   T   T
  0.4444275303203638  0.4444529015064840  0.4659731367776149   T   T   T
  0.7777862348398203  0.4444529015064844  0.4659731367776139   T   T   T
  0.1115445770440358  0.7782112437106998  0.4643115683838163   T   T   T
  0.4445007496254036  0.7776651674158591  0.4628607183240118   T   T   T
  0.7769108459119310  0.7782112437107005  0.4643115683838160   T   T   T
 -0.1106856196475453  0.2220094764904381  0.5600421795426243   T   T   T
  0.2220670308056872  0.2225326050552922  0.5571503119752933   T   T   T
  0.5553428098237740  0.2220094764904380  0.5600421795426243   T   T   T
 -0.1109167677615319  0.5557498989051318  0.5595945889234853   T   T   T
  0.2218335355230659  0.5557498989051325  0.5595945889234847   T   T   T
  0.5553428098237743  0.5559810470191181  0.5600421795426243   T   T   T
 -0.1109167677615320  0.8885002021897307  0.5595945889234841   T   T   T
  0.2220670308056865  0.8887336974723520  0.5571503119752942   T   T   T
  0.5558659383886280  0.8887336974723520  0.5571503119752943   T   T   T
  0.0003865632563910 -0.0000908697692093  0.6548787490494098   T   T   T
  0.3333333333333331  0.0000000000000003  0.6483184539659561   T   T   T
  0.6663709731794838 -0.0000908697692087  0.6548787490494098   T   T   T
  0.0003865632563912  0.3330376398461509  0.6548787490494098   T   T   T
  0.3332424635641231  0.3330376398461519  0.6548787490494098   T   T   T
  0.6666666666666666  0.3333333333333333  0.6541357515444198   T   T   T
 -0.0000000000000003  0.6666666666666666  0.6543608044972677   T   T   T
  0.3332424635641238  0.6670532299230588  0.6548787490494098   T   T   T
  0.6663709731794841  0.6670532299230570  0.6548787490494098   T   T   T
  0.3333333333333334 -0.0000000000000001  0.7590382605982285   T   T   T
