Au Hg
 1.0000000000000000
     8.6549870017233435    0.0000000000000000    0.0000000000000000
     4.3274935008616717    7.4954386129165247    0.0000000000000000
     0.0000000000000000    0.0000000000000000   27.0667672948810178
 Au  Hg 
  36   1
Selective dynamics
Direct
  0.0000000000000000  0.0000000000000000  0.3694567545157579   F   F   F
  0.3333333333333333  0.0000000000000000  0.3694567545157579   F   F   F
  0.6666666666666666  0.0000000000000000  0.3694567545157579   F   F   F
  0.0000000000000000  0.3333333333333333  0.3694567545157579   F   F   F
  0.3333333333333334  0.3333333333333333  0.3694567545157579   F   F   F
  0.6666666666666666  0.3333333333333333  0.3694567545157579   F   F   F
  0.0000000000000000  0.6666666666666666  0.3694567545157579   F   F   F
  0.3333333333333333  0.6666666666666666  0.3694567545157579   F   F   F
  0.6666666666666667  0.6666666666666666  0.3694567545157579   F   F   F
  0.1115445770440352  0.1115445770440349  0.4643115683838165   T   T   T
  0.4445007496254032  0.1109985007491936  0.4628607183240107   T   T   T
  0.7769108459119293  0.1115445770440352  0.4643115683838165   T   T   T
  0.1109985007491949  0.4445007496254014  0.4628607183240107   T   T   T
  0.4445007496254029  0.4445007496254022  0.4628607183240099   T   T   T
  0.7777862348398183  0.4444275303203633  0.4659731367776148   T   T   T
  0.1115445770440353  0.7769108459119295  0.4643115683838174   T   T   T
  0.4444275303203631  0.7777862348398180  0.4659731367776144   T   T   T
  0.7777862348398201  0.7777862348398182  0.4659731367776144   T   T   T
 -0.1109167677615331  0.2218335355230653  0.5595945889234841   T   T   T
  0.2220670308056855  0.2220670308056849  0.5571503119752960   T   T   T
  0.5558659383886283  0.2220670308056851  0.5571503119752956   T   T   T
 -0.1106856196475461  0.5553428098237726  0.5600421795426265   T   T   T
  0.2220670308056860  0.5558659383886280  0.5571503119752944   T   T   T
  0.5553428098237736  0.5553428098237723  0.5600421795426255   T   T   T
 -0.1109167677615329  0.8890832322384661  0.5595945889234842   T   T   T
  0.2218335355230671  0.8890832322384653  0.5595945889234842   T   T   T
  0.5553428098237739  0.8893143803524520  0.5600421795426251   T   T   T
 -0.0000000000000003  0.0000000000000006  0.6543608044972619   T   T   T
  0.3332424635641241  0.0003865632563910  0.6548787490494107   T   T   T
  0.6663709731794848  0.0003865632563904  0.6548787490494107   T   T   T
  0.0003865632563903  0.3332424635641244  0.6548787490494123   T   T   T
  0.3333333333333334  0.3333333333333333  0.6483184539659599   T   T   T
  0.6663709731794839  0.3332424635641245  0.6548787490494107   T   T   T
  0.0003865632563911  0.6663709731794843  0.6548787490494107   T   T   T
  0.3332424635641240  0.6663709731794843  0.6548787490494123   T   T   T
  0.6666666666666667  0.6666666666666666  0.6541357515444226   T   T   T
  0.3333333333333334  0.3333333333333333  0.7590382605982341   T   T   T
