Au Hg
 1.0000000000000000
     8.6549870017233435    0.0000000000000000    0.0000000000000000
     4.3274935008616717    7.4954386129165247    0.0000000000000000
     0.0000000000000000    0.0000000000000000   27.0667672948810178
 Au  Hg 
  36   1
Selective dynamics
Direct
  0.0000000000000000  0.0000000000000000  0.3694567545157579   F   F   F
  0.3333333333333333  0.0000000000000000  0.3694567545157579   F   F   F
  0.6666666666666666  0.0000000000000000  0.3694567545157579   F   F   F
  0.0000000000000000  0.3333333333333333  0.3694567545157579   F   F   F
  0.3333333333333334  0.3333333333333333  0.3694567545157579   F   F   F
  0.6666666666666666  0.3333333333333333  0.3694567545157579   F   F   F
  0.0000000000000000  0.6666666666666666  0.3694567545157579   F   F   F
  0.3333333333333333  0.6666666666666666  0.3694567545157579   F   F   F
  0.6666666666666667  0.6666666666666666  0.3694567545157579   F   F   F
  0.1110941969870304  0.1111195681731514  0.4659731367776140   T   T   T
  0.4444529015064853  0.1111195681731516  0.4659731367776140   T   T   T
  0.7782112437107026  0.1102441792452614  0.4643115683838179   T   T   T
  0.1111674162920693  0.4443318340825280  0.4628607183240100   T   T   T
  0.4435775125785959  0.4448779103773685  0.4643115683838173   T   T   T
  0.7782112437107026  0.4448779103773689  0.4643115683838163   T   T   T
  0.1111674162920698  0.7778340829587359  0.4628607183240100   T   T   T
  0.4444529015064849  0.7777608636536967  0.4659731367776144   T   T   T
  0.7776651674158611  0.7778340829587359  0.4628607183240100   T   T   T
 -0.1114997978102668  0.2224165655717993  0.5595945889234840   T   T   T
  0.2220094764904405  0.2226477136857856  0.5600421795426248   T   T   T
  0.5557498989051338  0.2224165655717989  0.5595945889234850   T   T   T
 -0.1112663025276467  0.5554003641390177  0.5571503119752957   T   T   T
  0.2225326050552949  0.5554003641390187  0.5571503119752960   T   T   T
  0.5557498989051348  0.5551668688563971  0.5595945889234857   T   T   T
 -0.1112663025276460  0.8891992717219608  0.5571503119752956   T   T   T
  0.2220094764904423  0.8886761431571046  0.5600421795426264   T   T   T
  0.5559810470191210  0.8886761431571051  0.5600421795426251   T   T   T
 -0.0000908697692090 -0.0002956934871821  0.6548787490494098   T   T   T
  0.3333333333333330 -0.0000000000000003  0.6541357515444196   T   T   T
  0.6670532299230568 -0.0002956934871814  0.6548787490494098   T   T   T
 -0.0000908697692099  0.3337198965897245  0.6548787490494098   T   T   T
  0.3330376398461513  0.3337198965897236  0.6548787490494088   T   T   T
  0.6666666666666666  0.3333333333333333  0.6543608044972673   T   T   T
 -0.0000000000000013  0.6666666666666666  0.6483184539659625   T   T   T
  0.3330376398461508  0.6665757968974567  0.6548787490494146   T   T   T
  0.6670532299230559  0.6665757968974583  0.6548787490494140   T   T   T
  0.0000000000000000  0.6666666666666666  0.7590382605982383   T   T   T
