Au Hg
 1.0000000000000000
     8.6549870017233435    0.0000000000000000    0.0000000000000000
     4.3274935008616717    7.4954386129165247    0.0000000000000000
     0.0000000000000000    0.0000000000000000   27.0667672948810178
 Au  Hg 
  36   1
Selective dynamics
Direct
  0.0000000000000000  0.0000000000000000  0.3694567545157579   F   F   F
  0.3333333333333333  0.0000000000000000  0.3694567545157579   F   F   F
  0.6666666666666666  0.0000000000000000  0.3694567545157579   F   F   F
  0.0000000000000000  0.3333333333333333  0.3694567545157579   F   F   F
  0.3333333333333334  0.3333333333333333  0.3694567545157579   F   F   F
  0.6666666666666666  0.3333333333333333  0.3694567545157579   F   F   F
  0.0000000000000000  0.6666666666666666  0.3694567545157579   F   F   F
  0.3333333333333333  0.6666666666666666  0.3694567545157579   F   F   F
  0.6666666666666667  0.6666666666666666  0.3694567545157579   F   F   F
  0.1115445770440347  0.1102441792452626  0.4643115683838165   T   T   T
  0.4444275303203621  0.1111195681731514  0.4659731367776151   T   T   T
  0.7777862348398182  0.1111195681731514  0.4659731367776151   T   T   T
  0.1115445770440356  0.4448779103773683  0.4643115683838168   T   T   T
  0.4445007496254029  0.4443318340825275  0.4628607183240096   T   T   T
  0.7769108459119290  0.4448779103773682  0.4643115683838168   T   T   T
  0.1109985007491945  0.7778340829587360  0.4628607183240104   T   T   T
  0.4445007496254026  0.7778340829587357  0.4628607183240104   T   T   T
  0.7777862348398187  0.7777608636536959  0.4659731367776151   T   T   T
 -0.1109167677615335  0.2224165655717999  0.5595945889234846   T   T   T
  0.2218335355230668  0.2224165655717991  0.5595945889234846   T   T   T
  0.5553428098237733  0.2226477136857868  0.5600421795426255   T   T   T
 -0.1109167677615325  0.5551668688563981  0.5595945889234846   T   T   T
  0.2220670308056860  0.5554003641390186  0.5571503119752946   T   T   T
  0.5558659383886283  0.5554003641390201  0.5571503119752946   T   T   T
 -0.1106856196475455  0.8886761431571063  0.5600421795426255   T   T   T
  0.2220670308056863  0.8891992717219606  0.5571503119752945   T   T   T
  0.5553428098237750  0.8886761431571062  0.5600421795426255   T   T   T
  0.0003865632563913 -0.0002956934871824  0.6548787490494125   T   T   T
  0.3332424635641237 -0.0002956934871817  0.6548787490494120   T   T   T
  0.6666666666666670 -0.0000000000000007  0.6541357515444223   T   T   T
 -0.0000000000000009  0.3333333333333333  0.6543608044972610   T   T   T
  0.3332424635641235  0.3337198965897244  0.6548787490494120   T   T   T
  0.6663709731794843  0.3337198965897237  0.6548787490494120   T   T   T
  0.0003865632563899  0.6665757968974572  0.6548787490494120   T   T   T
  0.3333333333333314  0.6666666666666666  0.6483184539659582   T   T   T
  0.6663709731794825  0.6665757968974574  0.6548787490494120   T   T   T
  0.3333333333333333  0.6666666666666666  0.7590382605982320   T   T   T
