Au Hg
 1.0000000000000000
     8.6549870017233435    0.0000000000000000    0.0000000000000000
     4.3274935008616717    7.4954386129165247    0.0000000000000000
     0.0000000000000000    0.0000000000000000   27.0667672948810178
 Au  Hg 
  36   1
Selective dynamics
Direct
  0.0000000000000000  0.0000000000000000  0.3694567545157579   F   F   F
  0.3333333333333333  0.0000000000000000  0.3694567545157579   F   F   F
  0.6666666666666666  0.0000000000000000  0.3694567545157579   F   F   F
  0.0000000000000000  0.3333333333333333  0.3694567545157579   F   F   F
  0.3333333333333334  0.3333333333333333  0.3694567545157579   F   F   F
  0.6666666666666666  0.3333333333333333  0.3694567545157579   F   F   F
  0.0000000000000000  0.6666666666666666  0.3694567545157579   F   F   F
  0.3333333333333333  0.6666666666666666  0.3694567545157579   F   F   F
  0.6666666666666667  0.6666666666666666  0.3694567545157579   F   F   F
  0.1111195681731520  0.1110941969870294  0.4659731367776149   T   T   T
  0.4443318340825280  0.1111674162920687  0.4628607183240103   T   T   T
  0.7778340829587366  0.1111674162920688  0.4628607183240096   T   T   T
  0.1111195681731522  0.4444529015064846  0.4659731367776149   T   T   T
  0.4448779103773699  0.4435775125785935  0.4643115683838167   T   T   T
  0.7777608636536979  0.4444529015064843  0.4659731367776149   T   T   T
  0.1102441792452603  0.7782112437107025  0.4643115683838167   T   T   T
  0.4448779103773704  0.7782112437107025  0.4643115683838160   T   T   T
  0.7778340829587362  0.7776651674158607  0.4628607183240110   T   T   T
 -0.1113238568428924  0.2220094764904383  0.5600421795426266   T   T   T
  0.2226477136857856  0.2220094764904390  0.5600421795426266   T   T   T
  0.5554003641390208  0.2225326050552917  0.5571503119752943   T   T   T
 -0.1113238568428929  0.5559810470191174  0.5600421795426266   T   T   T
  0.2224165655718011  0.5557498989051322  0.5595945889234841   T   T   T
  0.5551668688563992  0.5557498989051323  0.5595945889234841   T   T   T
 -0.1108007282780393  0.8887336974723522  0.5571503119752953   T   T   T
  0.2224165655718011  0.8885002021897299  0.5595945889234841   T   T   T
  0.5554003641390191  0.8887336974723519  0.5571503119752950   T   T   T
 -0.0002956934871819 -0.0000908697692087  0.6548787490494102   T   T   T
  0.3337198965897230 -0.0000908697692079  0.6548787490494102   T   T   T
  0.6666666666666664  0.0000000000000004  0.6483184539659623   T   T   T
 -0.0000000000000006  0.3333333333333342  0.6541357515444245   T   T   T
  0.3337198965897233  0.3330376398461525  0.6548787490494102   T   T   T
  0.6665757968974576  0.3330376398461521  0.6548787490494102   T   T   T
 -0.0002956934871820  0.6670532299230572  0.6548787490494102   T   T   T
  0.3333333333333333  0.6666666666666666  0.6543608044972643   T   T   T
  0.6665757968974574  0.6670532299230572  0.6548787490494102   T   T   T
  0.6666666666666666 -0.0000000000000000  0.7590382605982390   T   T   T
