Au Hg
 1.0000000000000000
     8.6549870017233435    0.0000000000000000    0.0000000000000000
     4.3274935008616717    7.4954386129165247    0.0000000000000000
     0.0000000000000000    0.0000000000000000   27.0667672948810178
 Au  Hg 
  36   1
Selective dynamics
Direct
  0.0000000000000000  0.0000000000000000  0.3694567545157579   F   F   F
  0.3333333333333333  0.0000000000000000  0.3694567545157579   F   F   F
  0.6666666666666666  0.0000000000000000  0.3694567545157579   F   F   F
  0.0000000000000000  0.3333333333333333  0.3694567545157579   F   F   F
  0.3333333333333334  0.3333333333333333  0.3694567545157579   F   F   F
  0.6666666666666666  0.3333333333333333  0.3694567545157579   F   F   F
  0.0000000000000000  0.6666666666666666  0.3694567545157579   F   F   F
  0.3333333333333333  0.6666666666666666  0.3694567545157579   F   F   F
  0.6666666666666667  0.6666666666666666  0.3694567545157579   F   F   F
  0.1102441792452616  0.1115445770440353  0.4643115683838164   T   T   T
  0.4448779103773694  0.1115445770440352  0.4643115683838170   T   T   T
  0.7778340829587365  0.1109985007491938  0.4628607183240107   T   T   T
  0.1111195681731527  0.4444275303203629  0.4659731367776142   T   T   T
  0.4443318340825285  0.4445007496254022  0.4628607183240105   T   T   T
  0.7778340829587371  0.4445007496254014  0.4628607183240107   T   T   T
  0.1111195681731520  0.7777862348398179  0.4659731367776146   T   T   T
  0.4448779103773695  0.7769108459119274  0.4643115683838170   T   T   T
  0.7777608636536965  0.7777862348398183  0.4659731367776146   T   T   T
 -0.1108007282780377  0.2220670308056858  0.5571503119752954   T   T   T
  0.2224165655718013  0.2218335355230652  0.5595945889234839   T   T   T
  0.5554003641390207  0.2220670308056856  0.5571503119752946   T   T   T
 -0.1113238568428930  0.5553428098237729  0.5600421795426257   T   T   T
  0.2226477136857873  0.5553428098237722  0.5600421795426257   T   T   T
  0.5554003641390189  0.5558659383886289  0.5571503119752954   T   T   T
 -0.1113238568428924  0.8893143803524521  0.5600421795426257   T   T   T
  0.2224165655718003  0.8890832322384672  0.5595945889234839   T   T   T
  0.5551668688563995  0.8890832322384673  0.5595945889234839   T   T   T
 -0.0002956934871811  0.0003865632563901  0.6548787490494120   T   T   T
  0.3333333333333341 -0.0000000000000016  0.6543608044972634   T   T   T
  0.6665757968974574  0.0003865632563904  0.6548787490494120   T   T   T
 -0.0002956934871813  0.3332424635641233  0.6548787490494120   T   T   T
  0.3337198965897238  0.3332424635641233  0.6548787490494120   T   T   T
  0.6666666666666671  0.3333333333333321  0.6483184539659597   T   T   T
  0.0000000000000000  0.6666666666666666  0.6541357515444203   T   T   T
  0.3337198965897247  0.6663709731794836  0.6548787490494120   T   T   T
  0.6665757968974581  0.6663709731794837  0.6548787490494120   T   T   T
  0.6666666666666666  0.3333333333333333  0.7590382605982333   T   T   T
