Au Hg
 1.0000000000000000
     8.6549870017233435    0.0000000000000000    0.0000000000000000
     4.3274935008616717    7.4954386129165247    0.0000000000000000
     0.0000000000000000    0.0000000000000000   27.0667672948810178
 Au  Hg 
  36   1
Selective dynamics
Direct
  0.0000000000000000  0.0000000000000000  0.3694567545157579   F   F   F
  0.3333333333333333  0.0000000000000000  0.3694567545157579   F   F   F
  0.6666666666666666  0.0000000000000000  0.3694567545157579   F   F   F
  0.0000000000000000  0.3333333333333333  0.3694567545157579   F   F   F
  0.3333333333333334  0.3333333333333333  0.3694567545157579   F   F   F
  0.6666666666666666  0.3333333333333333  0.3694567545157579   F   F   F
  0.0000000000000000  0.6666666666666666  0.3694567545157579   F   F   F
  0.3333333333333333  0.6666666666666666  0.3694567545157579   F   F   F
  0.6666666666666667  0.6666666666666666  0.3694567545157579   F   F   F
  0.1111674162920696  0.1111674162920687  0.4628607183240093   T   T   T
  0.4444529015064848  0.1110941969870303  0.4659731367776160   T   T   T
  0.7776651674158620  0.1111674162920688  0.4628607183240093   T   T   T
  0.1110941969870289  0.4444529015064855  0.4659731367776160   T   T   T
  0.4444529015064850  0.4444529015064848  0.4659731367776160   T   T   T
  0.7782112437107038  0.4435775125785923  0.4643115683838165   T   T   T
  0.1111674162920690  0.7776651674158619  0.4628607183240093   T   T   T
  0.4435775125785923  0.7782112437107024  0.4643115683838165   T   T   T
  0.7782112437107029  0.7782112437107037  0.4643115683838163   T   T   T
 -0.1112663025276465  0.2225326050552936  0.5571503119752952   T   T   T
  0.2220094764904405  0.2220094764904390  0.5600421795426265   T   T   T
  0.5559810470191213  0.2220094764904382  0.5600421795426266   T   T   T
 -0.1114997978102683  0.5557498989051338  0.5595945889234849   T   T   T
  0.2220094764904398  0.5559810470191203  0.5600421795426266   T   T   T
  0.5557498989051340  0.5557498989051329  0.5595945889234849   T   T   T
 -0.1112663025276470  0.8887336974723528  0.5571503119752952   T   T   T
  0.2225326050552941  0.8887336974723528  0.5571503119752952   T   T   T
  0.5557498989051348  0.8885002021897301  0.5595945889234849   T   T   T
  0.0000000000000007  0.0000000000000002  0.6483184539659638   T   T   T
  0.3330376398461526 -0.0000908697692090  0.6548787490494120   T   T   T
  0.6670532299230574 -0.0000908697692087  0.6548787490494120   T   T   T
 -0.0000908697692087  0.3330376398461522  0.6548787490494120   T   T   T
  0.3333333333333334  0.3333333333333333  0.6541357515444194   T   T   T
  0.6670532299230578  0.3330376398461520  0.6548787490494120   T   T   T
 -0.0000908697692085  0.6670532299230567  0.6548787490494120   T   T   T
  0.3330376398461521  0.6670532299230567  0.6548787490494120   T   T   T
  0.6666666666666667  0.6666666666666666  0.6543608044972675   T   T   T
  0.0000000000000000  0.0000000000000000  0.7590382605982409   T   T   T
