Au Hg
 1.0000000000000000
     8.6549870017233435    0.0000000000000000    0.0000000000000000
     4.3274935008616717    7.4954386129165247    0.0000000000000000
     0.0000000000000000    0.0000000000000000   27.0667672948810178
 Au  Hg 
  36   1
Selective dynamics
Direct
  0.0000000000000000  0.0000000000000000  0.3694567545157579   F   F   F
  0.3333333333333333  0.0000000000000000  0.3694567545157579   F   F   F
  0.6666666666666666  0.0000000000000000  0.3694567545157579   F   F   F
  0.0000000000000000  0.3333333333333333  0.3694567545157579   F   F   F
  0.3333333333333334  0.3333333333333333  0.3694567545157579   F   F   F
  0.6666666666666666  0.3333333333333333  0.3694567545157579   F   F   F
  0.0000000000000000  0.6666666666666666  0.3694567545157579   F   F   F
  0.3333333333333333  0.6666666666666666  0.3694567545157579   F   F   F
  0.6666666666666667  0.6666666666666666  0.3694567545157579   F   F   F
  0.1111674162920697  0.1109985007491941  0.4628607183240108   T   T   T
  0.4435775125785955  0.1115445770440346  0.4643115683838164   T   T   T
  0.7782112437107029  0.1115445770440350  0.4643115683838164   T   T   T
  0.1111674162920697  0.4445007496254028  0.4628607183240098   T   T   T
  0.4444529015064855  0.4444275303203623  0.4659731367776134   T   T   T
  0.7776651674158623  0.4445007496254020  0.4628607183240098   T   T   T
  0.1110941969870297  0.7777862348398179  0.4659731367776150   T   T   T
  0.4444529015064862  0.7777862348398177  0.4659731367776150   T   T   T
  0.7782112437107029  0.7769108459119274  0.4643115683838172   T   T   T
 -0.1112663025276471  0.2220670308056858  0.5571503119752954   T   T   T
  0.2225326050552941  0.2220670308056860  0.5571503119752954   T   T   T
  0.5557498989051339  0.2218335355230654  0.5595945889234835   T   T   T
 -0.1112663025276466  0.5558659383886266  0.5571503119752954   T   T   T
  0.2220094764904396  0.5553428098237734  0.5600421795426245   T   T   T
  0.5559810470191213  0.5553428098237715  0.5600421795426245   T   T   T
 -0.1114997978102672  0.8890832322384673  0.5595945889234851   T   T   T
  0.2220094764904410  0.8893143803524525  0.5600421795426248   T   T   T
  0.5557498989051357  0.8890832322384669  0.5595945889234851   T   T   T
 -0.0000908697692083  0.0003865632563892  0.6548787490494106   T   T   T
  0.3330376398461526  0.0003865632563899  0.6548787490494106   T   T   T
  0.6666666666666677 -0.0000000000000023  0.6543608044972652   T   T   T
  0.0000000000000007  0.3333333333333318  0.6483184539659627   T   T   T
  0.3330376398461529  0.3332424635641230  0.6548787490494103   T   T   T
  0.6670532299230583  0.3332424635641224  0.6548787490494103   T   T   T
 -0.0000908697692083  0.6663709731794836  0.6548787490494106   T   T   T
  0.3333333333333333  0.6666666666666666  0.6541357515444176   T   T   T
  0.6670532299230578  0.6663709731794836  0.6548787490494106   T   T   T
  0.0000000000000000  0.3333333333333333  0.7590382605982398   T   T   T
