37

Au      0.000000000000000      0.000000000000000     10.000000000000000
Au      2.884995667241114      0.000000000000000     10.000000000000000
Au      5.769991334482229      0.000000000000000     10.000000000000000
Au      1.442497833620557      2.498479537638842     10.000000000000000
Au      4.327493500861672      2.498479537638842     10.000000000000000
Au      7.212489168102786      2.498479537638842     10.000000000000000
Au      2.884995667241114      4.996959075277683     10.000000000000000
Au      5.769991334482229      4.996959075277683     10.000000000000000
Au      8.654987001723343      4.996959075277683     10.000000000000000
Au      1.441584135239884      0.832298988540249     12.607318821316971
Au      4.324173789507467      0.831376956373574     12.572922009455993
Au      7.215251111394999      0.837165197218916     12.553933103849536
Au      2.882080459094233      3.329155873905510     12.572922009455993
Au      5.774596764693394      3.333964996557271     12.581912832717226
Au      8.648433912894491      3.327037474560673     12.586447060358219
Au      4.332631883653283      5.830008158542511     12.553933103849525
Au      7.205515928759605      5.826244734237155     12.586447060358219
Au     10.096038551607256      5.828950575519287     12.543929100075450
Au     -0.000116436248006      1.661543958620977     15.147152648529676
Au      2.887290837370966      1.666978142184866     15.130075241256220
Au      5.769131811250929      1.658994353319531     15.109505111346094
Au      1.444058439776963      4.168354466115996     15.116952019090157
Au      4.321297160335114      4.166717529664467     15.109505111346099
Au      7.211265891588461      4.163426303706561     15.128329976770511
Au      2.887478051355357      6.664045305506825     15.072068875914109
Au      5.766374560407995      6.664565796857351     15.147152648529676
Au      8.659423580384924      6.661852673254702     15.116952019090157
Au      0.005370226626544      0.003100501788440     17.773182593286883
Au      2.892920123522542     -0.000879262684605     17.698048044562690
Au      5.767551938816291      0.009455138050797     17.629811379041264
Au      1.445698597939802      2.505781949432035     17.698048044562690
Au      4.329404267681436      2.499582719376584     17.685648233769975
Au      7.209604640519772      2.493553821002698     17.690809164304763
Au      2.891964359156421      4.990118927635703     17.629811379041264
Au      5.764283274951975      4.996923859430939     17.690809164304763
Au      8.650141796483766      4.994161694728338     17.738161058124042
Hg      6.491767625073463     -1.248935289425016     20.316865582235881
