37

Au      0.000000000000000      0.000000000000000     10.000000000000000
Au      2.884995667241114      0.000000000000000     10.000000000000000
Au      5.769991334482229      0.000000000000000     10.000000000000000
Au      1.442497833620557      2.498479537638842     10.000000000000000
Au      4.327493500861672      2.498479537638842     10.000000000000000
Au      7.212489168102786      2.498479537638842     10.000000000000000
Au      2.884995667241114      4.996959075277683     10.000000000000000
Au      5.769991334482229      4.996959075277683     10.000000000000000
Au      8.654987001723343      4.996959075277683     10.000000000000000
Au      1.442497833620560      0.827508619801983     12.581912832717249
Au      4.325117061362264      0.828265257155087     12.553933103849541
Au      7.214865607602196      0.828265257155086     12.553933103849541
Au      2.884591164033797      3.334905782637446     12.572922009456013
Au      5.769991334482229      3.332976074794478     12.543929100075466
Au      8.655391504930661      3.334905782637441     12.572922009456013
Au      4.327073350347343      5.837595017035224     12.586447060358243
Au      7.212909318617101      5.837595017035219     12.586447060358243
Au     10.097484835343900      5.830840635836019     12.607318821316998
Au     -0.005336817295261      1.669726729932514     15.109505111346115
Au      2.890332484536372      1.669726729932518     15.109505111346115
Au      5.769991334482229      1.662786614819374     15.072068875914104
Au      1.442497833620557      4.161482328546778     15.130075241256256
Au      4.330369473366844      4.160670086462348     15.116952019090164
Au      7.209613195597608      4.160670086462343     15.116952019090165
Au      2.881495329414891      6.664767470354716     15.147152648529715
Au      5.769991334482229      6.664024618419909     15.128329976770576
Au      8.658487339549572      6.664767470354716     15.147152648529715
Au     -0.002823531947236      0.004960932482883     17.690809164304813
Au      2.887819199188351      0.004960932482880     17.690809164304813
Au      5.769991334482229     -0.006201003576884     17.773182593286876
Au      1.442497833620561      2.496273174163347     17.685648233770060
Au      4.318085413280427      2.495864547230024     17.629811379041303
Au      7.221897255684032      2.495864547230029     17.629811379041303
Au      2.889719359203294      4.990535926169093     17.698048044562707
Au      5.769991334482229      5.002553836376377     17.738161058124071
Au      8.650263309761153      4.990535926169101     17.698048044562707
Hg      5.769991334482229      2.497870578850037     20.316865582235920
