37

Au      0.000000000000000      0.000000000000000     10.000000000000000
Au      2.884995667241114      0.000000000000000     10.000000000000000
Au      5.769991334482229      0.000000000000000     10.000000000000000
Au      1.442497833620557      2.498479537638842     10.000000000000000
Au      4.327493500861672      2.498479537638842     10.000000000000000
Au      7.212489168102786      2.498479537638842     10.000000000000000
Au      2.884995667241114      4.996959075277683     10.000000000000000
Au      5.769991334482229      4.996959075277683     10.000000000000000
Au      8.654987001723343      4.996959075277683     10.000000000000000
Au      1.447103263831707      0.835485458918426     12.581912832717258
Au      4.320940412032818      0.828557936921829     12.586447060358228
Au      7.209573959955893      0.830676336266661     12.572922009455990
Au      2.878022427897935      3.327765196598306     12.586447060358228
Au      5.768545050745573      3.330471037880440     12.543929100075463
Au      8.660125384514966      3.331528620903673     12.553933103849545
Au      4.324173789507460      5.828336031651254     12.572922009456004
Au      7.215251111394997      5.834124272496605     12.553933103849554
Au     10.096571136963213      5.829258063817931     12.607318821317000
Au     -0.006196340526549      1.668237992025608     15.109505111346129
Au      2.883772390726782      1.664946766067711     15.128329976770553
Au      5.771551940638648      1.669874928477146     15.116952019090132
Au      1.438881059546337      4.166086259218485     15.147152648529692
Au      4.331930079523274      4.163373135615854     15.116952019090132
Au      7.214971552217033      4.165565767867984     15.072068875914097
Au      2.887290837370980      6.663937217462549     15.130075241256236
Au      5.769131811250930      6.655953428597210     15.109505111346120
Au      8.654870565475344      6.658503033898654     15.147152648529692
Au      0.001910766819765      0.001103181737738     17.685648233770088
Au      2.882111139658107     -0.004925716636140     17.690809164304813
Au      5.773192098801485      0.007302411793180     17.698048044562668
Au      1.436789774090321      2.498444321792093     17.690809164304845
Au      4.322648295622125      2.495682157089496     17.738161058123968
Au      7.219457860018104      2.491639389996853     17.629811379041325
Au      2.892920123522547      4.996079812593067     17.698048044562668
Au      5.767551938816313      5.006414213328469     17.629811379041325
Au      8.660357228349890      5.000059577066110     17.773182593286680
Hg      6.491767625073462      3.748023785852673     20.316865582235948
