37

Au      0.000000000000000      0.000000000000000     10.000000000000000
Au      2.884995667241114      0.000000000000000     10.000000000000000
Au      5.769991334482229      0.000000000000000     10.000000000000000
Au      1.442497833620557      2.498479537638842     10.000000000000000
Au      4.327493500861672      2.498479537638842     10.000000000000000
Au      7.212489168102786      2.498479537638842     10.000000000000000
Au      2.884995667241114      4.996959075277683     10.000000000000000
Au      5.769991334482229      4.996959075277683     10.000000000000000
Au      8.654987001723343      4.996959075277683     10.000000000000000
Au      1.442093330413236      0.836426244998599     12.572922009455977
Au      4.327493500861672      0.834496537155630     12.543929100075461
Au      7.212893671310112      0.836426244998598     12.572922009455977
Au      2.884575516726791      3.339115479396371     12.586447060358239
Au      5.770411484996554      3.339115479396376     12.586447060358239
Au      8.654987001723343      3.332361098197187     12.607318821316976
Au      4.327493500861672      5.824467695079661     12.581912832717240
Au      7.210112728603377      5.825224332432763     12.553933103849538
Au     10.099861274843304      5.825224332432757     12.553933103849527
Au     -0.000000000000001      1.663002790907943     15.130075241256188
Au      2.887871639746289      1.662190548823501     15.116952019090176
Au      5.767115361977053      1.662190548823500     15.116952019090176
Au      1.438997495794327      4.166287932715878     15.147152648529696
Au      4.327493500861672      4.165545080781075     15.128329976770557
Au      7.215989505929019      4.166287932715889     15.147152648529696
Au      2.879658849945851      6.666685805210206     15.109505111346076
Au      5.775328151777494      6.666685805210208     15.109505111346076
Au      8.654987001723343      6.659745690097056     15.072068875914095
Au      0.000000000000004     -0.002206363475488     17.685648233769939
Au      2.875587579659867     -0.002614990408807     17.629811379041325
Au      5.779399422063477     -0.002614990408808     17.629811379041325
Au      1.447221525582731      2.492056388530259     17.698048044562618
Au      4.327493500861672      2.504074298737538     17.738161058124049
Au      7.207765476140608      2.492056388530256     17.698048044562618
Au      2.882172135293882      5.001920007760571     17.690809164304788
Au      5.772814866429458      5.001920007760571     17.690809164304788
Au      8.654987001723343      4.990758071700810     17.773182593286826
Hg      4.327493500861672     -0.000608958788810     20.316865582235952
