37

Au      0.000000000000000      0.000000000000000     10.000000000000000
Au      2.884995667241114      0.000000000000000     10.000000000000000
Au      5.769991334482229      0.000000000000000     10.000000000000000
Au      1.442497833620557      2.498479537638842     10.000000000000000
Au      4.327493500861672      2.498479537638842     10.000000000000000
Au      7.212489168102786      2.498479537638842     10.000000000000000
Au      2.884995667241114      4.996959075277683     10.000000000000000
Au      5.769991334482229      4.996959075277683     10.000000000000000
Au      8.654987001723343      4.996959075277683     10.000000000000000
Au      1.443411532001219      0.832298988540243     12.607318821316968
Au      4.324731557569443      0.837165197218919     12.553933103849525
Au      7.215808879456984      0.831376956373564     12.572922009455965
Au      2.891548756069960      3.327037474560669     12.586447060358267
Au      5.765385904271059      3.333964996557271     12.581912832717268
Au      8.657902209870210      3.329155873905504     12.572922009455999
Au      4.334466740204838      5.826244734237143     12.586447060358239
Au      7.207350785311159      5.830008158542518     12.553933103849550
Au     10.098931119080554      5.828950575519276     12.543929100075456
Au     -0.002295170129855      1.666978142184870     15.130075241256199
Au      2.885112103489124      1.661543958620979     15.147152648529746
Au      5.770850857713515      1.658994353319535     15.109505111346092
Au      1.440937227464144      4.168354466115993     15.116952019090157
Au      4.328716777375996      4.163426303706566     15.128329976770660
Au      7.218685508629332      4.166717529664472     15.109505111346106
Au      2.880559088579528      6.661852673254709     15.116952019090149
Au      5.773608108556467      6.664565796857333     15.147152648529726
Au      8.652504617609106      6.664045305506838     15.072068875914098
Au     -0.007924456281427     -0.000879262684595     17.698048044562643
Au      2.879625440614572      0.003100501788448     17.773182593286837
Au      5.772430730148159      0.009455138050800     17.629811379041268
Au      1.439297069301301      2.505781949432042     17.698048044562643
Au      4.330378028444679      2.493553821002702     17.690809164304909
Au      7.210578401283014      2.499582719376593     17.685648233769925
Au      2.889840872480657      4.994161694728357     17.738161058124085
Au      5.775699394012469      4.996923859430949     17.690809164304909
Au      8.648018309808032      4.990118927635703     17.629811379041289
Hg      5.048215043890997     -1.248935289425015     20.316865582235895
