37

Au      0.000000000000000      0.000000000000000     10.000000000000000
Au      2.884995667241114      0.000000000000000     10.000000000000000
Au      5.769991334482229      0.000000000000000     10.000000000000000
Au      1.442497833620557      2.498479537638842     10.000000000000000
Au      4.327493500861672      2.498479537638842     10.000000000000000
Au      7.212489168102786      2.498479537638842     10.000000000000000
Au      2.884995667241114      4.996959075277683     10.000000000000000
Au      5.769991334482229      4.996959075277683     10.000000000000000
Au      8.654987001723343      4.996959075277683     10.000000000000000
Au      1.449471072963725      0.829285658959478     12.586447060358235
Au      4.322355118070042      0.833049083264838     12.553933103849561
Au      7.213935451839427      0.831991500241614     12.543929100075465
Au      2.885909365621778      3.330778526179091     12.607318821316966
Au      5.767229391190010      3.335644734857759     12.553933103849543
Au      8.658306713077540      3.329856494012423     12.572922009456017
Au      4.334046589690510      5.825517012199517     12.586447060358221
Au      7.207883737891634      5.832444534196111     12.581912832717233
Au     10.100400043490771      5.827635411544354     12.572922009456017
Au     -0.004436578661598      1.664893597977030     15.116952019090137
Au      2.888612441315331      1.667606721579670     15.147152648529692
Au      5.767508950367972      1.667086230229162     15.072068875914121
Au      1.440202663490681      4.165457679823722     15.130075241256245
Au      4.327609937109668      4.160023496259824     15.147152648529664
Au      7.213348691334083      4.157473890958375     15.109505111346124
Au      2.883435061084690      6.666834003754845     15.116952019090142
Au      5.771214610996553      6.661905841345412     15.128329976770484
Au      8.661183342249887      6.665197067303314     15.109505111346124
Au      0.004845205239560     -0.002797380549332     17.738161058123964
Au      2.890703726771360     -0.000035215846737     17.690809164304714
Au      5.763022642566911     -0.006840147641980     17.629811379041335
Au      1.434573377339146      2.497600274954239     17.698048044562665
Au      4.322123274235145      2.501580039427290     17.773182593286833
Au      7.214928563768735      2.507934675689639     17.629811379041335
Au      2.881794902921876      5.004261487070877     17.698048044562665
Au      5.772875862065243      4.992033358641559     17.690809164304710
Au      8.653076234903581      4.998062257015432     17.685648233770149
Hg      6.490712877511554      1.249544248213823     20.316865582235952
