37

Au      0.000000000000000      0.000000000000000     10.000000000000000
Au      2.884995667241114      0.000000000000000     10.000000000000000
Au      5.769991334482229      0.000000000000000     10.000000000000000
Au      1.442497833620557      2.498479537638842     10.000000000000000
Au      4.327493500861672      2.498479537638842     10.000000000000000
Au      7.212489168102786      2.498479537638842     10.000000000000000
Au      2.884995667241114      4.996959075277683     10.000000000000000
Au      5.769991334482229      4.996959075277683     10.000000000000000
Au      8.654987001723343      4.996959075277683     10.000000000000000
Au      1.442902336827882      0.836426244998606     12.572922009455985
Au      4.327088997654354      0.836426244998603     12.572922009455985
Au      7.212489168102787      0.834496537155634     12.543929100075481
Au      2.884995667241118      3.332361098197189     12.607318821316955
Au      5.769571183967914      3.339115479396384     12.586447060358221
Au      8.655407152237691      3.339115479396380     12.586447060358221
Au      4.329869940361080      5.825224332432767     12.553933103849516
Au      7.212489168102786      5.824467695079668     12.581912832717233
Au     10.095108395844496      5.825224332432773     12.553933103849536
Au     -0.002875972505172      1.662190548823491     15.116952019090164
Au      2.884995667241114      1.663002790907941     15.130075241256206
Au      5.772867306987405      1.662190548823493     15.116952019090164
Au      1.445998171446784      4.166287932715872     15.147152648529696
Au      4.323993163035446      4.166287932715889     15.147152648529694
Au      7.212489168102787      4.165545080781081     15.128329976770527
Au      2.884995667241114      6.659745690097051     15.072068875914118
Au      5.764654517186969      6.666685805210188     15.109505111346083
Au      8.660323819018600      6.666685805210204     15.109505111346083
Au      0.009408087581260     -0.002614990408822     17.629811379041325
Au      2.884995667241114     -0.002206363475511     17.685648233769960
Au      5.760583246900971     -0.002614990408821     17.629811379041325
Au      1.437774141658383      2.492056388530249     17.698048044562672
Au      4.332217192823840      2.492056388530251     17.698048044562668
Au      7.212489168102786      2.504074298737510     17.738161058123971
Au      2.884995667241114      4.990758071700807     17.773182593286734
Au      5.767167802535009      5.001920007760547     17.690809164304778
Au      8.657810533670572      5.001920007760547     17.690809164304792
Hg     -1.442497833620557     -0.000608958788809     20.316865582235952
