37

Au      0.000000000000000      0.000000000000000     10.000000000000000
Au      2.884995667241114      0.000000000000000     10.000000000000000
Au      5.769991334482229      0.000000000000000     10.000000000000000
Au      1.442497833620557      2.498479537638842     10.000000000000000
Au      4.327493500861672      2.498479537638842     10.000000000000000
Au      7.212489168102786      2.498479537638842     10.000000000000000
Au      2.884995667241114      4.996959075277683     10.000000000000000
Au      5.769991334482229      4.996959075277683     10.000000000000000
Au      8.654987001723343      4.996959075277683     10.000000000000000
Au      1.442093330413239      0.836426244998603     12.572922009455979
Au      4.327493500861672      0.834496537155634     12.543929100075472
Au      7.212893671310119      0.836426244998603     12.572922009455990
Au      2.884575516726792      3.339115479396379     12.586447060358225
Au      5.770411484996555      3.339115479396382     12.586447060358225
Au      8.654987001723343      3.332361098197191     12.607318821316960
Au      4.327493500861672      5.824467695079678     12.581912832717244
Au      7.210112728603377      5.825224332432774     12.553933103849536
Au     10.099861274843304      5.825224332432774     12.553933103849536
Au     -0.000000000000006      1.663002790907937     15.130075241256186
Au      2.887871639746289      1.662190548823494     15.116952019090142
Au      5.767115361977057      1.662190548823496     15.116952019090142
Au      1.438997495794331      4.166287932715883     15.147152648529691
Au      4.327493500861672      4.165545080781085     15.128329976770539
Au      7.215989505929011      4.166287932715873     15.147152648529691
Au      2.879658849945848      6.666685805210194     15.109505111346090
Au      5.775328151777489      6.666685805210192     15.109505111346090
Au      8.654987001723343      6.659745690097058     15.072068875914121
Au     -0.000000000000001     -0.002206363475502     17.685648233769879
Au      2.875587579659859     -0.002614990408821     17.629811379041314
Au      5.779399422063475     -0.002614990408817     17.629811379041314
Au      1.447221525582730      2.492056388530244     17.698048044562647
Au      4.327493500861672      2.504074298737517     17.738161058124007
Au      7.207765476140611      2.492056388530248     17.698048044562647
Au      2.882172135293875      5.001920007760563     17.690809164304792
Au      5.772814866429458      5.001920007760559     17.690809164304792
Au      8.654987001723343      4.990758071700794     17.773182593286808
Hg      4.327493500861672     -0.000608958788810     20.316865582235941
