37

Au      0.000000000000000      0.000000000000000     10.000000000000000
Au      2.884995667241114      0.000000000000000     10.000000000000000
Au      5.769991334482229      0.000000000000000     10.000000000000000
Au      1.442497833620557      2.498479537638842     10.000000000000000
Au      4.327493500861672      2.498479537638842     10.000000000000000
Au      7.212489168102786      2.498479537638842     10.000000000000000
Au      2.884995667241114      4.996959075277683     10.000000000000000
Au      5.769991334482229      4.996959075277683     10.000000000000000
Au      8.654987001723343      4.996959075277683     10.000000000000000
Au      1.441051549883915      0.831991500241607     12.543929100075484
Au      4.332631883653299      0.833049083264838     12.553933103849518
Au      7.205515928759620      0.829285658959478     12.586447060358219
Au      2.887757610533341      3.335644734857758     12.553933103849550
Au      5.769077636101565      3.330778526179095     12.607318821316955
Au      8.651667290369144      3.329856494012408     12.572922009455992
Au      4.320940412032838      5.825517012199512     12.586447060358225
Au      7.209573959955910      5.827635411544361     12.572922009455992
Au     10.102090265555077      5.832444534196108     12.581912832717260
Au      0.004436578661593      1.664893597977020     15.116952019090194
Au      2.887478051355366      1.667086230229152     15.072068875914130
Au      5.766374560408010      1.667606721579656     15.147152648529687
Au      1.441638310389262      4.157473890958367     15.109505111346099
Au      4.327377064613664      4.160023496259827     15.147152648529664
Au      7.214784338232639      4.165457679823705     15.130075241256201
Au      2.883772390726784      6.661905841345405     15.128329976770537
Au      5.771551940638633      6.666834003754841     15.116952019090194
Au      8.648790661196793      6.665197067303319     15.109505111346095
Au     -0.004845205239557     -0.002797380549340     17.738161058124113
Au      2.891964359156434     -0.006840147642002     17.629811379041339
Au      5.764283274951985     -0.000035215846737     17.690809164304820
Au      1.440058437954610      2.507934675689649     17.629811379041339
Au      4.332863727488199      2.501580039427273     17.773182593286720
Au      7.220413624384205      2.497600274954237     17.698048044562693
Au      2.882111139658103      4.992033358641544     17.690809164304820
Au      5.773192098801472      5.004261487070867     17.698048044562729
Au      8.656897768543114      4.998062257015434     17.685648233769914
Hg      2.164274124211817      1.249544248213823     20.316865582235913
