37

Au      0.000000000000000      0.000000000000000     10.000000000000000
Au      2.884995667241114      0.000000000000000     10.000000000000000
Au      5.769991334482229      0.000000000000000     10.000000000000000
Au      1.442497833620557      2.498479537638842     10.000000000000000
Au      4.327493500861672      2.498479537638842     10.000000000000000
Au      7.212489168102786      2.498479537638842     10.000000000000000
Au      2.884995667241114      4.996959075277683     10.000000000000000
Au      5.769991334482229      4.996959075277683     10.000000000000000
Au      8.654987001723343      4.996959075277683     10.000000000000000
Au      1.445413041767446      0.830676336266658     12.572922009456009
Au      4.334046589690531      0.828557936921827     12.586447060358239
Au      7.207883737891632      0.835485458918423     12.581912832717247
Au      2.886441950977778      3.330471037880437     12.543929100075472
Au      5.776964573825423      3.327765196598308     12.586447060358241
Au      8.649848618931742      3.331528620903671     12.553933103849552
Au      4.330813212215884      5.828336031651255     12.572922009456009
Au      7.213402866483464      5.829258063817919     12.607318821316976
Au     10.094722892051683      5.834124272496586     12.553933103849554
Au      0.006196340526558      1.668237992025622     15.109505111346095
Au      2.883435061084706      1.669874928477155     15.116952019090192
Au      5.771214610996561      1.664946766067719     15.128329976770569
Au      1.440015449506311      4.165565767867991     15.072068875914109
Au      4.323056922200092      4.163373135615858     15.116952019090181
Au      7.216105942177022      4.166086259218504     15.147152648529696
Au      2.885855190472411      6.655953428597216     15.109505111346095
Au      5.767696164352373      6.663937217462561     15.130075241256277
Au      8.655103437971347      6.658503033898655     15.147152648529740
Au     -0.001910766819760      0.001103181737748     17.685648233770117
Au      2.881794902921881      0.007302411793187     17.698048044562750
Au      5.772875862065258     -0.004925716636139     17.690809164304817
Au      1.435529141705265      2.491639389996867     17.629811379041261
Au      4.332338706101243      2.495682157089500     17.738161058124064
Au      7.218197227633047      2.498444321792109     17.690809164304699
Au      2.887435062907053      5.006414213328467     17.629811379041261
Au      5.762066878200822      4.996079812593066     17.698048044562750
Au      8.649616775096813      5.000059577066112     17.773182593286780
Hg      2.163219376649848      3.748023785852671     20.316865582235874
