37

Au      0.000000000000000      0.000000000000000     10.000000000000000
Au      2.884995667241114      0.000000000000000     10.000000000000000
Au      5.769991334482229      0.000000000000000     10.000000000000000
Au      1.442497833620557      2.498479537638842     10.000000000000000
Au      4.327493500861672      2.498479537638842     10.000000000000000
Au      7.212489168102786      2.498479537638842     10.000000000000000
Au      2.884995667241114      4.996959075277683     10.000000000000000
Au      5.769991334482229      4.996959075277683     10.000000000000000
Au      8.654987001723343      4.996959075277683     10.000000000000000
Au      1.439178122266356      0.831376956373574     12.572922009456011
Au      4.330255444153893      0.837165197218917     12.553933103849559
Au      7.211575469722124      0.832298988540248     12.607318821316966
Au      2.889601097452276      3.333964996557275     12.581912832717265
Au      5.763438245653377      3.327037474560680     12.586447060358237
Au      8.652071793576473      3.329155873905510     12.572922009455988
Au      4.320520261518510      5.826244734237150     12.586447060358251
Au      7.211042884366136      5.828950575519283     12.543929100075470
Au     10.102623218135530      5.830008158542513     12.553933103849529
Au      0.002295170129856      1.666978142184878     15.130075241256222
Au      2.884136144009809      1.658994353319534     15.109505111346136
Au      5.769874898234209      1.661543958620985     15.147152648529715
Au      1.436301493094007      4.166717529664468     15.109505111346120
Au      4.326270224347346      4.163426303706556     15.128329976770644
Au      7.214049774259185      4.168354466115997     15.116952019090142
Au      2.881378893166880      6.664565796857337     15.147152648529699
Au      5.774427913143818      6.661852673254697     15.116952019090183
Au      8.657469385837588      6.664045305506838     15.072068875914098
Au      0.007924456281423     -0.000879262684603     17.698048044562604
Au      2.882556271575182      0.009455138050801     17.629811379041321
Au      5.775361561108769      0.003100501788437     17.773182593286805
Au      1.444408600440324      2.499582719376593     17.685648233770106
Au      4.324608973278657      2.493553821002705     17.690809164304923
Au      7.215689932422039      2.505781949432036     17.698048044562626
Au      2.879287607710868      4.996923859430954     17.690809164304884
Au      5.765146129242676      4.994161694728343     17.738161058124163
Au      8.661955693638657      4.990118927635704     17.629811379041229
Hg      3.606771957832385     -1.248935289425039     20.316865582235870
