37

Au      0.000000000000000      0.000000000000000     10.000000000000000
Au      2.884995667241114      0.000000000000000     10.000000000000000
Au      5.769991334482229      0.000000000000000     10.000000000000000
Au      1.442497833620557      2.498479537638842     10.000000000000000
Au      4.327493500861672      2.498479537638842     10.000000000000000
Au      7.212489168102786      2.498479537638842     10.000000000000000
Au      2.884995667241114      4.996959075277683     10.000000000000000
Au      5.769991334482229      4.996959075277683     10.000000000000000
Au      8.654987001723343      4.996959075277683     10.000000000000000
Au      1.444874273119964      0.828265257155089     12.553933103849543
Au      4.327493500861672      0.827508619801982     12.581912832717242
Au      7.210112728603391      0.828265257155092     12.553933103849536
Au      2.885400170448440      3.334905782637444     12.572922009455985
Au      5.769586831274904      3.334905782637445     12.572922009455988
Au      8.654987001723343      3.332976074794482     12.543929100075475
Au      4.327493500861672      5.830840635836021     12.607318821316959
Au      7.212069017588466      5.837595017035225     12.586447060358221
Au     10.097904985858230      5.837595017035222     12.586447060358221
Au     -0.000000000000006      1.662786614819373     15.072068875914116
Au      2.879658849945857      1.669726729932520     15.109505111346104
Au      5.775328151777484      1.669726729932520     15.109505111346103
Au      1.439621861115377      4.160670086462336     15.116952019090165
Au      4.327493500861672      4.161482328546770     15.130075241256229
Au      7.215365140607957      4.160670086462341     15.116952019090176
Au      2.888496005067349      6.664767470354708     15.147152648529662
Au      5.766490996655998      6.664767470354721     15.147152648529664
Au      8.654987001723343      6.664024618419911     15.128329976770543
Au      0.000000000000002     -0.006201003576885     17.773182593286755
Au      2.882172135293883      0.004960932482875     17.690809164304742
Au      5.772814866429473      0.004960932482870     17.690809164304742
Au      1.451905921201814      2.495864547230022     17.629811379041293
Au      4.327493500861672      2.496273174163341     17.685648233770060
Au      7.203081080521527      2.495864547230023     17.629811379041293
Au      2.880271975278940      4.990535926169091     17.698048044562682
Au      5.774715026444404      4.990535926169094     17.698048044562682
Au      8.654987001723343      5.002553836376356     17.738161058124128
Hg      0.000000000000001      2.497870578850036     20.316865582235884
