37

Au      0.000000000000000      0.000000000000000     10.000000000000000
Au      2.884995667241114      0.000000000000000     10.000000000000000
Au      5.769991334482229      0.000000000000000     10.000000000000000
Au      1.442497833620557      2.498479537638842     10.000000000000000
Au      4.327493500861672      2.498479537638842     10.000000000000000
Au      7.212489168102786      2.498479537638842     10.000000000000000
Au      2.884995667241114      4.996959075277683     10.000000000000000
Au      5.769991334482229      4.996959075277683     10.000000000000000
Au      8.654987001723343      4.996959075277683     10.000000000000000
Au      1.449050922449407      0.828557936921832     12.586447060358239
Au      4.322888070650503      0.835485458918434     12.581912832717235
Au      7.215404376249669      0.830676336266666     12.572922009456008
Au      2.891968906584284      3.327765196598312     12.586447060358257
Au      5.764852951690614      3.331528620903681     12.553933103849541
Au      8.656433285460004      3.330471037880444     12.543929100075466
Au      4.328407199242341      5.829258063817931     12.607318821316973
Au      7.209727224810574      5.834124272496592     12.553933103849541
Au     10.100804546698093      5.828336031651254     12.572922009456008
Au     -0.001560606156417      1.669874928477149     15.116952019090160
Au      2.886218943755442      1.664946766067715     15.128329976770583
Au      5.776187675008783      1.668237992025627     15.109505111346104
Au      1.438061254958966      4.163373135615865     15.116952019090164
Au      4.331110274935901      4.166086259218504     15.147152648529724
Au      7.210006783988547      4.165565767867993     15.072068875914105
Au      2.882700497111252      6.663937217462553     15.130075241256229
Au      5.770107770730234      6.658503033898659     15.147152648529724
Au      8.655846524954626      6.655953428597213     15.109505111346104
Au     -0.003200764319244      0.007302411793182     17.698048044562629
Au      2.887880194824131     -0.004925716636142     17.690809164304845
Au      5.768080567662467      0.001103181737746     17.685648233770053
Au      1.447343038860108      2.495682157089501     17.738161058123975
Au      4.333201560391913      2.498444321792092     17.690809164304845
Au      7.205520476187474      2.491639389996859     17.629811379041307
Au      2.877071210959699      4.996079812593079     17.698048044562629
Au      5.764621107855707      5.000059577066109     17.773182593286862
Au      8.657426397389283      5.006414213328481     17.629811379041307
Hg      7.933210711132110      3.748023785852671     20.316865582235920
