37

Au      0.000000000000000      0.000000000000000     10.000000000000000
Au      2.884995667241114      0.000000000000000     10.000000000000000
Au      5.769991334482229      0.000000000000000     10.000000000000000
Au      1.442497833620557      2.498479537638842     10.000000000000000
Au      4.327493500861672      2.498479537638842     10.000000000000000
Au      7.212489168102786      2.498479537638842     10.000000000000000
Au      2.884995667241114      4.996959075277683     10.000000000000000
Au      5.769991334482229      4.996959075277683     10.000000000000000
Au      8.654987001723343      4.996959075277683     10.000000000000000
Au      1.442497833620557      0.834496537155637     12.543929100075461
Au      4.327898004068985      0.836426244998603     12.572922009456004
Au      7.212084664895468      0.836426244998604     12.572922009456004
Au      2.885415817755445      3.339115479396382     12.586447060358248
Au      5.769991334482229      3.332361098197192     12.607318821316994
Au      8.654566851209013      3.339115479396380     12.586447060358259
Au      4.325117061362272      5.825224332432766     12.553933103849522
Au      7.214865607602194      5.825224332432763     12.553933103849561
Au     10.097484835343900      5.824467695079671     12.581912832717256
Au      0.002875972505172      1.662190548823500     15.116952019090180
Au      2.882119694735939      1.662190548823493     15.116952019090171
Au      5.769991334482229      1.663002790907930     15.130075241256245
Au      1.442497833620560      4.165545080781066     15.128329976770601
Au      4.330993838687903      4.166287932715881     15.147152648529737
Au      7.208988830276556      4.166287932715870     15.147152648529763
Au      2.890332484536376      6.666685805210189     15.109505111346111
Au      5.769991334482229      6.659745690097061     15.072068875914100
Au      8.649650184428090      6.666685805210189     15.109505111346111
Au     -0.009408087581253     -0.002614990408826     17.629811379041300
Au      2.894403754822370     -0.002614990408823     17.629811379041300
Au      5.769991334482229     -0.002206363475496     17.685648233769957
Au      1.442497833620556      2.504074298737512     17.738161058124092
Au      4.322769808899498      2.492056388530246     17.698048044562729
Au      7.217212860064960      2.492056388530243     17.698048044562718
Au      2.887819199188349      5.001920007760547     17.690809164304838
Au      5.769991334482229      4.990758071700796     17.773182593286883
Au      8.652163469776117      5.001920007760549     17.690809164304838
Hg      1.442497833620557     -0.000608958788809     20.316865582235916
