37

Au      0.000000000000000      0.000000000000000     10.000000000000000
Au      2.884995667241114      0.000000000000000     10.000000000000000
Au      5.769991334482229      0.000000000000000     10.000000000000000
Au      1.442497833620557      2.498479537638842     10.000000000000000
Au      4.327493500861672      2.498479537638842     10.000000000000000
Au      7.212489168102786      2.498479537638842     10.000000000000000
Au      2.884995667241114      4.996959075277683     10.000000000000000
Au      5.769991334482229      4.996959075277683     10.000000000000000
Au      8.654987001723343      4.996959075277683     10.000000000000000
Au      1.443944117357204      0.831991500241604     12.543929100075484
Au      4.334466740204843      0.829285658959470     12.586447060358219
Au      7.207350785311169      0.833049083264833     12.553933103849552
Au      2.888315378595319      3.329856494012410     12.572922009456009
Au      5.770905032862891      3.330778526179086     12.607318821316973
Au      8.652225058431121      3.335644734857754     12.553933103849545
Au      4.330408709008553      5.827635411544343     12.572922009456009
Au      7.219042256931632      5.825517012199521     12.586447060358221
Au     10.092879405132734      5.832444534196106     12.581912832717267
Au     -0.002482384114238      1.667086230229159     15.072068875914121
Au      2.880559088579531      1.664893597977023     15.116952019090185
Au      5.773608108556459      1.667606721579662     15.147152648529671
Au      1.443357356851866      4.157473890958368     15.109505111346133
Au      4.325198330731815      4.165457679823712     15.130075241256222
Au      7.212605604350803      4.160023496259819     15.147152648529673
Au      2.891192007767679      6.665197067303310     15.109505111346131
Au      5.768430728325822      6.666834003754834     15.116952019090181
Au      8.656210278237673      6.661905841345408     15.128329976770527
Au     -0.006968691915298     -0.006840147641983     17.629811379041353
Au      2.889840872480691     -0.002797380549339     17.738161058124049
Au      5.775699394012476     -0.000035215846734     17.690809164304731
Au      1.444937229286505      2.507934675689634     17.629811379041392
Au      4.319569044580268      2.497600274954238     17.698048044562643
Au      7.207118941476261      2.501580039427282     17.773182593286794
Au      2.883084900421364      4.998062257015429     17.685648233769999
Au      5.766790570162993      5.004261487070873     17.698048044562704
Au      8.657871529306361      4.992033358641551     17.690809164304735
Hg      0.720721543029311      1.249544248213823     20.316865582236026
