37

Au      0.000000000000000      0.000000000000000     10.000000000000000
Au      2.884995667241114      0.000000000000000     10.000000000000000
Au      5.769991334482229      0.000000000000000     10.000000000000000
Au      1.442497833620557      2.498479537638842     10.000000000000000
Au      4.327493500861672      2.498479537638842     10.000000000000000
Au      7.212489168102786      2.498479537638842     10.000000000000000
Au      2.884995667241114      4.996959075277683     10.000000000000000
Au      5.769991334482229      4.996959075277683     10.000000000000000
Au      8.654987001723343      4.996959075277683     10.000000000000000
Au      1.445817544974762      0.831376956373566     12.572922009455990
Au      4.328407199242341      0.832298988540237     12.607318821316953
Au      7.209727224810568      0.837165197218909     12.553933103849536
Au      2.887910875387998      3.329155873905501     12.572922009455990
Au      5.776544423311074      3.327037474560667     12.586447060358246
Au      8.650381571512192      3.333964996557270     12.581912832717263
Au      4.328939784598321      5.828950575519281     12.543929100075477
Au      7.219462407445959      5.826244734237148     12.586447060358246
Au     10.092346452552285      5.830008158542517     12.553933103849534
Au      0.000859523231290      1.658994353319517     15.109505111346094
Au      2.882700497111253      1.666978142184864     15.130075241256181
Au      5.770107770730233      1.661543958620979     15.147152648529655
Au      1.448694174147112      4.166717529664470     15.109505111346117
Au      4.325932894705246      4.168354466115997     15.116952019090171
Au      7.213712444617109      4.163426303706557     15.128329976770576
Au      2.882513283126861      6.664045305506831     15.072068875914105
Au      5.765554755820626      6.661852673254705     15.116952019090178
Au      8.658603775797564      6.664565796857340     15.147152648529691
Au      0.002439395665932      0.009455138050793     17.629811379041335
Au      2.877071210959691     -0.000879262684606     17.698048044562711
Au      5.764621107855683      0.003100501788438     17.773182593286659
Au      1.440587066800786      2.499582719376584     17.685648233769939
Au      4.324292736542418      2.505781949432029     17.698048044562622
Au      7.215373695685788      2.493553821002697     17.690809164304842
Au      2.878026975325792      4.990118927635692     17.629811379041367
Au      5.774836539721781      4.994161694728335     17.738161058124032
Au      8.660695061253582      4.996923859430953     17.690809164304842
Hg     -0.721776290591239     -1.248935289425015     20.316865582235952
