37

Au      0.000000000000000      0.000000000000000     10.000000000000000
Au      2.884995667241114      0.000000000000000     10.000000000000000
Au      5.769991334482229      0.000000000000000     10.000000000000000
Au      1.442497833620557      2.498479537638842     10.000000000000000
Au      4.327493500861672      2.498479537638842     10.000000000000000
Au      7.212489168102786      2.498479537638842     10.000000000000000
Au      2.884995667241114      4.996959075277683     10.000000000000000
Au      5.769991334482229      4.996959075277683     10.000000000000000
Au      8.654987001723343      4.996959075277683     10.000000000000000
Au      1.435524594277381      0.829285658959468     12.586447060358234
Au      4.326047217125017      0.831991500241593     12.543929100075470
Au      7.217627550894398      0.833049083264830     12.553933103849538
Au      2.881675955886906      3.329856494012407     12.572922009456002
Au      5.772753277774434      3.335644734857750     12.553933103849538
Au      8.654073303342694      3.330778526179083     12.607318821316987
Au      4.332098931072825      5.832444534196112     12.581912832717235
Au      7.205936079273940      5.825517012199515     12.586447060358234
Au     10.094569627197011      5.827635411544344     12.572922009456002
Au     -0.003616774074215      1.667606721579661     15.147152648529714
Au      2.889432245902710      1.664893597977019     15.116952019090199
Au      5.772473718596476      1.667086230229152     15.072068875914111
Au      1.444793003750422      4.165457679823708     15.130075241256256
Au      4.326633977630377      4.157473890958366     15.109505111346094
Au      7.212372731854804      4.160023496259819     15.147152648529671
Au      2.878799326714565      6.665197067303304     15.109505111346115
Au      5.768768057967907      6.661905841345410     15.128329976770541
Au      8.656547607879769      6.666834003754823     15.116952019090199
Au     -0.005708059530251     -0.000035215846740     17.690809164304788
Au      2.880150462001543     -0.002797380549354     17.738161058124117
Au      5.776960026397549     -0.006840147641985     17.629811379041310
Au      1.450422289901991      2.497600274954232     17.698048044562746
Au      4.325054105195751      2.507934675689631     17.629811379041310
Au      7.217859394729325      2.501580039427284     17.773182593286727
Au      2.886906434060880      4.998062257015429     17.685648233770024
Au      5.767106806899220      4.992033358641538     17.690809164304689
Au      8.658187766042579      5.004261487070877     17.698048044562746
Hg      5.049269791452904      1.249544248213818     20.316865582235923
