37

Au      0.000000000000000      0.000000000000000     10.000000000000000
Au      2.884995667241114      0.000000000000000     10.000000000000000
Au      5.769991334482229      0.000000000000000     10.000000000000000
Au      1.442497833620557      2.498479537638842     10.000000000000000
Au      4.327493500861672      2.498479537638842     10.000000000000000
Au      7.212489168102786      2.498479537638842     10.000000000000000
Au      2.884995667241114      4.996959075277683     10.000000000000000
Au      5.769991334482229      4.996959075277683     10.000000000000000
Au      8.654987001723343      4.996959075277683     10.000000000000000
Au      1.435524594277381      0.829285658959468     12.586447060358203
Au      4.326047217125017      0.831991500241597     12.543929100075479
Au      7.217627550894406      0.833049083264832     12.553933103849548
Au      2.881675955886904      3.329856494012407     12.572922009456006
Au      5.772753277774442      3.335644734857752     12.553933103849536
Au      8.654073303342676      3.330778526179085     12.607318821316992
Au      4.332098931072826      5.832444534196107     12.581912832717247
Au      7.205936079273938      5.825517012199497     12.586447060358209
Au     10.094569627197007      5.827635411544337     12.572922009455976
Au     -0.003616774074219      1.667606721579653     15.147152648529698
Au      2.889432245902711      1.664893597977013     15.116952019090165
Au      5.772473718596474      1.667086230229148     15.072068875914109
Au      1.444793003750423      4.165457679823708     15.130075241256259
Au      4.326633977630371      4.157473890958361     15.109505111346106
Au      7.212372731854796      4.160023496259819     15.147152648529685
Au      2.878799326714570      6.665197067303302     15.109505111346106
Au      5.768768057967904      6.661905841345394     15.128329976770496
Au      8.656547607879761      6.666834003754822     15.116952019090165
Au     -0.005708059530240     -0.000035215846741     17.690809164304756
Au      2.880150462001561     -0.002797380549340     17.738161058123936
Au      5.776960026397541     -0.006840147641977     17.629811379041314
Au      1.450422289901973      2.497600274954232     17.698048044562729
Au      4.325054105195737      2.507934675689632     17.629811379041314
Au      7.217859394729309      2.501580039427272     17.773182593286727
Au      2.886906434060883      4.998062257015429     17.685648233770053
Au      5.767106806899220      4.992033358641546     17.690809164304756
Au      8.658187766042577      5.004261487070870     17.698048044562729
Hg      5.049269791452905      1.249544248213814     20.316865582235934
