37

Au      0.000000000000000      0.000000000000000     10.000000000000000
Au      2.884995667241114      0.000000000000000     10.000000000000000
Au      5.769991334482229      0.000000000000000     10.000000000000000
Au      1.442497833620557      2.498479537638842     10.000000000000000
Au      4.327493500861672      2.498479537638842     10.000000000000000
Au      7.212489168102786      2.498479537638842     10.000000000000000
Au      2.884995667241114      4.996959075277683     10.000000000000000
Au      5.769991334482229      4.996959075277683     10.000000000000000
Au      8.654987001723343      4.996959075277683     10.000000000000000
Au      1.440121394121147      0.828265257155091     12.553933103849534
Au      4.329869940361068      0.828265257155090     12.553933103849534
Au      7.212489168102787      0.827508619801975     12.581912832717258
Au      2.884995667241106      3.332976074794481     12.543929100075474
Au      5.770395837689547      3.334905782637443     12.572922009456006
Au      8.654582498516017      3.334905782637443     12.572922009456006
Au      4.327913651375992      5.837595017035222     12.586447060358246
Au      7.212489168102772      5.830840635836040     12.607318821316982
Au     10.097064684829553      5.837595017035218     12.586447060358259
Au      0.005336817295264      1.669726729932500     15.109505111346076
Au      2.884995667241114      1.662786614819372     15.072068875914088
Au      5.764654517186970      1.669726729932500     15.109505111346076
Au      1.445373806125735      4.160670086462342     15.116952019090204
Au      4.324617528356493      4.160670086462337     15.116952019090204
Au      7.212489168102787      4.161482328546779     15.130075241256199
Au      2.884995667241116      6.664024618419907     15.128329976770633
Au      5.773491672308456      6.664767470354719     15.147152648529717
Au      8.651486663897126      6.664767470354730     15.147152648529717
Au      0.002823531947236      0.004960932482866     17.690809164304873
Au      2.884995667241114     -0.006201003576878     17.773182593286798
Au      5.767167802534989      0.004960932482869     17.690809164304873
Au      1.433089746039308      2.495864547230017     17.629811379041282
Au      4.336901588442924      2.495864547230017     17.629811379041282
Au      7.212489168102786      2.496273174163336     17.685648233769840
Au      2.884995667241114      5.002553836376340     17.738161058124202
Au      5.765267642520059      4.990535926169095     17.698048044562722
Au      8.659710693685515      4.990535926169095     17.698048044562722
Hg      2.884995667241114      2.497870578850037     20.316865582235874
