37

Au      0.000000000000000      0.000000000000000     10.000000000000000
Au      2.884995667241114      0.000000000000000     10.000000000000000
Au      5.769991334482229      0.000000000000000     10.000000000000000
Au      1.442497833620557      2.498479537638842     10.000000000000000
Au      4.327493500861672      2.498479537638842     10.000000000000000
Au      7.212489168102786      2.498479537638842     10.000000000000000
Au      2.884995667241114      4.996959075277683     10.000000000000000
Au      5.769991334482229      4.996959075277683     10.000000000000000
Au      8.654987001723343      4.996959075277683     10.000000000000000
Au      1.442917984134881      0.840635941757540     12.586447060358237
Au      4.327493500861672      0.833881560558349     12.607318821316959
Au      7.212069017588464      0.840635941757539     12.586447060358234
Au      2.882619227741711      3.326744794793930     12.553933103849550
Au      5.772367773981630      3.326744794793932     12.553933103849550
Au      8.654987001723343      3.325988157440828     12.581912832717242
Au      4.327493500861672      5.831455612433317     12.543929100075463
Au      7.212893671310108      5.833385320276279     12.572922009455976
Au     10.097080332136594      5.833385320276288     12.572922009455979
Au     -0.000000000000000      1.667065543142243     15.128329976770518
Au      2.888496005067346      1.667808395077032     15.147152648529669
Au      5.766490996656003      1.667808395077034     15.147152648529669
Au      1.447834650915815      4.168206267571367     15.109505111346101
Au      4.327493500861672      4.161266152458216     15.072068875914116
Au      7.207152350807520      4.168206267571367     15.109505111346101
Au      2.887871639746282      6.659149624101184     15.116952019090164
Au      5.767115361977052      6.659149624101173     15.116952019090169
Au      8.654987001723343      6.659961866185609     15.130075241256227
Au      0.000000000000001      0.005594761098689     17.738161058123922
Au      2.880271975278938     -0.006423149108587     17.698048044562707
Au      5.774715026444405     -0.006423149108586     17.698048044562693
Au      1.445321365567789      2.503440470121720     17.690809164304767
Au      4.327493500861672      2.492278534061959     17.773182593286776
Au      7.209665636155552      2.503440470121729     17.690809164304767
Au      2.875587579659863      4.994344084868873     17.629811379041332
Au      5.779399422063484      4.994344084868866     17.629811379041332
Au      8.654987001723343      4.994752711802183     17.685648233770028
Hg      4.327493500861672      4.996350116488865     20.316865582235948
