37

Au      0.000000000000000      0.000000000000000     10.000000000000000
Au      2.884995667241114      0.000000000000000     10.000000000000000
Au      5.769991334482229      0.000000000000000     10.000000000000000
Au      1.442497833620557      2.498479537638842     10.000000000000000
Au      4.327493500861672      2.498479537638842     10.000000000000000
Au      7.212489168102786      2.498479537638842     10.000000000000000
Au      2.884995667241114      4.996959075277683     10.000000000000000
Au      5.769991334482229      4.996959075277683     10.000000000000000
Au      8.654987001723343      4.996959075277683     10.000000000000000
Au      1.442077683106233      0.840635941757544     12.586447060358223
Au      4.327913651375996      0.840635941757544     12.586447060358225
Au      7.212489168102787      0.833881560558351     12.607318821316973
Au      2.884995667241114      3.325988157440826     12.581912832717254
Au      5.767614894982820      3.326744794793929     12.553933103849554
Au      8.657363441222747      3.326744794793931     12.553933103849531
Au      4.327088997654347      5.833385320276289     12.572922009455988
Au      7.212489168102786      5.831455612433320     12.543929100075454
Au     10.097889338551207      5.833385320276289     12.572922009455988
Au     -0.003500337826223      1.667808395077025     15.147152648529673
Au      2.884995667241114      1.667065543142238     15.128329976770537
Au      5.773491672308455      1.667808395077033     15.147152648529717
Au      1.437161016325290      4.168206267571341     15.109505111346099
Au      4.332830318156931      4.168206267571347     15.109505111346111
Au      7.212489168102787      4.161266152458212     15.072068875914093
Au      2.884995667241114      6.659961866185610     15.130075241256252
Au      5.772867306987387      6.659149624101181     15.116952019090149
Au      8.652111029218178      6.659149624101181     15.116952019090149
Au      0.004723691962165     -0.006423149108590     17.698048044562707
Au      2.884995667241107      0.005594761098674     17.738161058123872
Au      5.765267642520048     -0.006423149108588     17.698048044562707
Au      1.439674301673321      2.503440470121709     17.690809164304866
Au      4.330317032808895      2.503440470121715     17.690809164304842
Au      7.212489168102786      2.492278534061968     17.773182593286737
Au      2.884995667241115      4.994752711802173     17.685648233769982
Au      5.760583246900974      4.994344084868867     17.629811379041307
Au      8.664395089304584      4.994344084868867     17.629811379041307
Hg      7.212489168102787      4.996350116488865     20.316865582235938
