37

Au      0.000000000000000      0.000000000000000     10.000000000000000
Au      2.884995667241114      0.000000000000000     10.000000000000000
Au      5.769991334482229      0.000000000000000     10.000000000000000
Au      1.442497833620557      2.498479537638842     10.000000000000000
Au      4.327493500861672      2.498479537638842     10.000000000000000
Au      7.212489168102786      2.498479537638842     10.000000000000000
Au      2.884995667241114      4.996959075277683     10.000000000000000
Au      5.769991334482229      4.996959075277683     10.000000000000000
Au      8.654987001723343      4.996959075277683     10.000000000000000
Au      1.437892403409394      0.835485458918425     12.581912832717217
Au      4.330408709008555      0.830676336266661     12.572922009456001
Au      7.219042256931627      0.828557936921827     12.586447060358221
Au      2.879857284449492      3.331528620903672     12.553933103849547
Au      5.771437618218874      3.330471037880438     12.543929100075445
Au      8.661960241066515      3.327765196598311     12.586447060358221
Au      4.324731557569458      5.834124272496590     12.553933103849547
Au      7.215808879456991      5.828336031651239     12.572922009456001
Au     10.098398533724550      5.829258063817928     12.607318821316971
Au      0.001223276514320      1.664946766067714     15.128329976770512
Au      2.891192007767657      1.668237992025622     15.109505111346099
Au      5.768430728325802      1.669874928477146     15.116952019090153
Au      1.446114607694772      4.166086259218488     15.147152648529675
Au      4.325011116747415      4.165565767867984     15.072068875914111
Au      7.208052589441186      4.163373135615864     15.116952019090149
Au      2.885112103489104      6.658503033898659     15.147152648529692
Au      5.770850857713520      6.655953428597217     15.109505111346090
Au      8.652691831593486      6.663937217462544     15.130075241256206
Au      0.002884527583006     -0.004925716636145     17.690809164304778
Au      2.883084900421345      0.001103181737739     17.685648233770035
Au      5.766790570162976      0.007302411793186     17.698048044562675
Au      1.448205893150793      2.498444321792096     17.690809164304778
Au      4.320524808946351      2.491639389996858     17.629811379041307
Au      7.217334373342339      2.495682157089499     17.738161058123943
Au      2.879625440614570      5.000059577066109     17.773182593286794
Au      5.772430730148156      5.006414213328483     17.629811379041307
Au      8.647062545441926      4.996079812593073     17.698048044562675
Hg      5.048215043890996      3.748023785852655     20.316865582235913
