37

Au      0.000000000000000      0.000000000000000     10.000000000000000
Au      2.884995667241114      0.000000000000000     10.000000000000000
Au      5.769991334482229      0.000000000000000     10.000000000000000
Au      1.442497833620557      2.498479537638842     10.000000000000000
Au      4.327493500861672      2.498479537638842     10.000000000000000
Au      7.212489168102786      2.498479537638842     10.000000000000000
Au      2.884995667241114      4.996959075277683     10.000000000000000
Au      5.769991334482229      4.996959075277683     10.000000000000000
Au      8.654987001723343      4.996959075277683     10.000000000000000
Au      1.435944744791716      0.828557936921829     12.586447060358223
Au      4.324578292714794      0.830676336266661     12.572922009456009
Au      7.217094598313948      0.835485458918422     12.581912832717244
Au      2.883549383504464      3.330471037880443     12.543929100075472
Au      5.775129717273851      3.331528620903683     12.553933103849545
Au      8.648013762380181      3.327765196598313     12.586447060358221
Au      4.330255444153885      5.834124272496592     12.553933103849552
Au      7.211575469722118      5.829258063817921     12.607318821316991
Au     10.094165123989690      5.828336031651248     12.572922009456025
Au     -0.001223276514328      1.664946766067713     15.128329976770514
Au      2.886556273397532      1.669874928477147     15.116952019090171
Au      5.763794993955673      1.668237992025623     15.109505111346119
Au      1.446934412282143      4.163373135615863     15.116952019090174
Au      4.329975884975921      4.165565767867991     15.072068875914129
Au      7.208872394028562      4.166086259218501     15.147152648529701
Au      2.884136144009817      6.655953428597211     15.109505111346152
Au      5.769874898234229      6.658503033898661     15.147152648529733
Au      8.657282171853211      6.663937217462552     15.130075241256261
Au     -0.002884527583021     -0.004925716636141     17.690809164304866
Au      2.888196431560350      0.007302411793187     17.698048044562707
Au      5.771902101301981      0.001103181737743     17.685648233770067
Au      1.437652628380993      2.495682157089499     17.738161058123961
Au      4.334462192776972      2.491639389996862     17.629811379041318
Au      7.206781108572534      2.498444321792091     17.690809164304802
Au      2.882556271575170      5.006414213328465     17.629811379041318
Au      5.775361561108750      5.000059577066107     17.773182593286769
Au      8.662911458004753      4.996079812593066     17.698048044562707
Hg      3.606771957832381      3.748023785852671     20.316865582235948
