37

Au      0.000000000000000      0.000000000000000     10.000000000000000
Au      2.884995667241114      0.000000000000000     10.000000000000000
Au      5.769991334482229      0.000000000000000     10.000000000000000
Au      1.442497833620557      2.498479537638842     10.000000000000000
Au      4.327493500861672      2.498479537638842     10.000000000000000
Au      7.212489168102786      2.498479537638842     10.000000000000000
Au      2.884995667241114      4.996959075277683     10.000000000000000
Au      5.769991334482229      4.996959075277683     10.000000000000000
Au      8.654987001723343      4.996959075277683     10.000000000000000
Au      1.440121394121148      0.828265257155087     12.553933103849520
Au      4.329869940361078      0.828265257155085     12.553933103849525
Au      7.212489168102787      0.827508619801978     12.581912832717268
Au      2.884995667241104      3.332976074794481     12.543929100075475
Au      5.770395837689534      3.334905782637437     12.572922009455999
Au      8.654582498516017      3.334905782637439     12.572922009456011
Au      4.327913651375991      5.837595017035226     12.586447060358266
Au      7.212489168102771      5.830840635836026     12.607318821316989
Au     10.097064684829553      5.837595017035230     12.586447060358250
Au      0.005336817295256      1.669726729932504     15.109505111346117
Au      2.884995667241114      1.662786614819369     15.072068875914081
Au      5.764654517186968      1.669726729932504     15.109505111346111
Au      1.445373806125738      4.160670086462344     15.116952019090208
Au      4.324617528356494      4.160670086462341     15.116952019090183
Au      7.212489168102787      4.161482328546771     15.130075241256183
Au      2.884995667241109      6.664024618419920     15.128329976770670
Au      5.773491672308459      6.664767470354723     15.147152648529730
Au      8.651486663897135      6.664767470354723     15.147152648529730
Au      0.002823531947235      0.004960932482870     17.690809164304898
Au      2.884995667241114     -0.006201003576892     17.773182593286798
Au      5.767167802534987      0.004960932482872     17.690809164304898
Au      1.433089746039311      2.495864547230014     17.629811379041257
Au      4.336901588442911      2.495864547230013     17.629811379041257
Au      7.212489168102786      2.496273174163343     17.685648233770024
Au      2.884995667241111      5.002553836376348     17.738161058124209
Au      5.765267642520051      4.990535926169076     17.698048044562647
Au      8.659710693685518      4.990535926169091     17.698048044562647
Hg      2.884995667241114      2.497870578850037     20.316865582235852
