37

Au      0.000000000000000      0.000000000000000     10.000000000000000
Au      2.884995667241114      0.000000000000000     10.000000000000000
Au      5.769991334482229      0.000000000000000     10.000000000000000
Au      1.442497833620557      2.498479537638842     10.000000000000000
Au      4.327493500861672      2.498479537638842     10.000000000000000
Au      7.212489168102786      2.498479537638842     10.000000000000000
Au      2.884995667241114      4.996959075277683     10.000000000000000
Au      5.769991334482229      4.996959075277683     10.000000000000000
Au      8.654987001723343      4.996959075277683     10.000000000000000
Au      1.442917984134876      0.840635941757545     12.586447060358225
Au      4.327493500861672      0.833881560558355     12.607318821316980
Au      7.212069017588471      0.840635941757547     12.586447060358225
Au      2.882619227741710      3.326744794793931     12.553933103849525
Au      5.772367773981640      3.326744794793940     12.553933103849543
Au      8.654987001723343      3.325988157440833     12.581912832717226
Au      4.327493500861672      5.831455612433321     12.543929100075468
Au      7.212893671310114      5.833385320276300     12.572922009456001
Au     10.097080332136587      5.833385320276293     12.572922009456001
Au      0.000000000000000      1.667065543142235     15.128329976770557
Au      2.888496005067341      1.667808395077037     15.147152648529705
Au      5.766490996655994      1.667808395077035     15.147152648529705
Au      1.447834650915814      4.168206267571358     15.109505111346087
Au      4.327493500861672      4.161266152458206     15.072068875914088
Au      7.207152350807525      4.168206267571365     15.109505111346083
Au      2.887871639746285      6.659149624101190     15.116952019090151
Au      5.767115361977057      6.659149624101191     15.116952019090151
Au      8.654987001723343      6.659961866185623     15.130075241256215
Au      0.000000000000004      0.005594761098675     17.738161058124017
Au      2.880271975278941     -0.006423149108593     17.698048044562661
Au      5.774715026444400     -0.006423149108593     17.698048044562661
Au      1.445321365567792      2.503440470121714     17.690809164304802
Au      4.327493500861672      2.492278534061958     17.773182593286830
Au      7.209665636155554      2.503440470121710     17.690809164304738
Au      2.875587579659864      4.994344084868862     17.629811379041271
Au      5.779399422063480      4.994344084868866     17.629811379041314
Au      8.654987001723343      4.994752711802182     17.685648233769971
Hg     -0.000000000000007     -2.499088496427647     20.316865582235913
