37

Au      0.000000000000000      0.000000000000000     10.000000000000000
Au      2.884995667241114      0.000000000000000     10.000000000000000
Au      5.769991334482229      0.000000000000000     10.000000000000000
Au      1.442497833620557      2.498479537638842     10.000000000000000
Au      4.327493500861672      2.498479537638842     10.000000000000000
Au      7.212489168102786      2.498479537638842     10.000000000000000
Au      2.884995667241114      4.996959075277683     10.000000000000000
Au      5.769991334482229      4.996959075277683     10.000000000000000
Au      8.654987001723343      4.996959075277683     10.000000000000000
Au      1.447636216412179      0.833049083264834     12.553933103849550
Au      4.320520261518499      0.829285658959468     12.586447060358216
Au      7.211042884366139      0.831991500241605     12.543929100075454
Au      2.884081968860449      3.330778526179084     12.607318821316964
Au      5.766671623128020      3.329856494012410     12.572922009455993
Au      8.657748945015550      3.335644734857760     12.553933103849547
Au      4.324578292714788      5.827635411544346     12.572922009455993
Au      7.217094598313940      5.832444534196114     12.581912832717258
Au     10.090931746515054      5.825517012199501     12.586447060358216
Au      0.002482384114243      1.667086230229157     15.072068875914114
Au      2.881378893166883      1.667606721579665     15.147152648529707
Au      5.774427913143811      1.664893597977025     15.116952019090160
Au      1.442381397372555      4.160023496259825     15.147152648529675
Au      4.329788670991532      4.165457679823721     15.130075241256204
Au      7.211629644871473      4.157473890958370     15.109505111346110
Au      2.886556273397524      6.666834003754846     15.116952019090160
Au      5.763794993955671      6.665197067303312     15.109505111346110
Au      8.653763725209016      6.661905841345412     15.128329976770537
Au      0.006968691915307     -0.006840147641975     17.629811379041318
Au      2.879287607710864     -0.000035215846733     17.690809164304792
Au      5.765146129242669     -0.002797380549335     17.738161058123996
Au      1.447868060247091      2.501580039427289     17.773182593286787
Au      4.335417957143090      2.497600274954238     17.698048044562650
Au      7.210049772436859      2.507934675689639     17.629811379041318
Au      2.888196431560353      5.004261487070881     17.698048044562650
Au      5.771902101301991      4.998062257015442     17.685648233770074
Au      8.652102474140332      4.992033358641540     17.690809164304785
Hg     -0.720721543029316      1.249544248213823     20.316865582235963
