37

Au      0.000000000000000      0.000000000000000     10.000000000000000
Au      2.884995667241114      0.000000000000000     10.000000000000000
Au      5.769991334482229      0.000000000000000     10.000000000000000
Au      1.442497833620557      2.498479537638842     10.000000000000000
Au      4.327493500861672      2.498479537638842     10.000000000000000
Au      7.212489168102786      2.498479537638842     10.000000000000000
Au      2.884995667241114      4.996959075277683     10.000000000000000
Au      5.769991334482229      4.996959075277683     10.000000000000000
Au      8.654987001723343      4.996959075277683     10.000000000000000
Au      1.437359450828941      0.833049083264831     12.553933103849527
Au      4.328939784598322      0.831991500241602     12.543929100075479
Au      7.219462407445966      0.829285658959466     12.586447060358232
Au      2.882233723948901      3.335644734857757     12.553933103849559
Au      5.773311045836437      3.329856494012406     12.572922009456004
Au      8.655900700104013      3.330778526179083     12.607318821316968
Au      4.322888070650521      5.832444534196105     12.581912832717245
Au      7.215404376249673      5.827635411544344     12.572922009456004
Au     10.104037924172761      5.825517012199511     12.586447060358239
Au      0.003616774074229      1.667606721579665     15.147152648529671
Au      2.882513283126875      1.667086230229156     15.072068875914123
Au      5.765554755820647      1.664893597977024     15.116952019090142
Au      1.442614269868566      4.160023496259829     15.147152648529705
Au      4.328353024092990      4.157473890958368     15.109505111346136
Au      7.210193997972927      4.165457679823728     15.130075241256215
Au      2.886218943755453      6.661905841345408     15.128329976770532
Au      5.776187675008795      6.665197067303317     15.109505111346120
Au      8.653426395566937      6.666834003754848     15.116952019090144
Au      0.005708059530246     -0.000035215846746     17.690809164304778
Au      2.878026975325807     -0.006840147641976     17.629811379041321
Au      5.774836539721785     -0.002797380549344     17.738161058123985
Au      1.437127606994015      2.501580039427282     17.773182593286791
Au      4.329932896527609      2.507934675689630     17.629811379041360
Au      7.204564711821366      2.497600274954231     17.698048044562615
Au      2.887880194824125      4.992033358641538     17.690809164304785
Au      5.768080567662460      4.998062257015432     17.685648233770095
Au      8.651786237404094      5.004261487070873     17.698048044562615
Hg      3.605717210270404      1.249544248213823     20.316865582235991
