37

Au      0.000000000000000      0.000000000000000     10.000000000000000
Au      2.884995667241114      0.000000000000000     10.000000000000000
Au      5.769991334482229      0.000000000000000     10.000000000000000
Au      1.442497833620557      2.498479537638842     10.000000000000000
Au      4.327493500861672      2.498479537638842     10.000000000000000
Au      7.212489168102786      2.498479537638842     10.000000000000000
Au      2.884995667241114      4.996959075277683     10.000000000000000
Au      5.769991334482229      4.996959075277683     10.000000000000000
Au      8.654987001723343      4.996959075277683     10.000000000000000
Au      1.442497833620557      0.828540189250877     12.596472632479523
Au      4.326415275140453      0.832203998635883     12.556679725940834
Au      7.213567393824003      0.832203998635881     12.556679725940834
Au      2.885000555089927      3.331303228184294     12.594092294400616
Au      5.769991334482229      3.332551078005908     12.556679725940828
Au      8.654982113874526      3.331303228184290     12.594092294400587
Au      4.331205565724320      5.831928749471656     12.596472632479555
Au      7.208777103240137      5.831928749471657     12.596472632479552
Au     10.097484835343900      5.829791231825618     12.594092294400616
Au     -0.002565318967330      1.668218584761449     15.131042608099438
Au      2.887560986208439      1.668218584761456     15.131042608099440
Au      5.769991334482229      1.665653025092558     15.088115174576949
Au      1.442497833620552      4.164132562731402     15.113111269223189
Au      4.326554320497155      4.160628151502439     15.131042608099461
Au      7.213428348467302      4.160628151502437     15.131042608099461
Au      2.881491167909261      6.663550951930301     15.131042608099461
Au      5.769991334482229      6.662612100370244     15.120099346492497
Au      8.658491501055179      6.663550951930303     15.131042608099461
Au     -0.002632802371246      0.001520049157764     17.706522805430364
Au      2.887628469612356      0.001520049157766     17.706522805430364
Au      5.769991334482229      0.001770019747824     17.723844444778681
Au      1.442497833620553      2.499300311306707     17.698066365802276
Au      4.329026382928485      2.497594527764937     17.723844444778681
Au      7.210956286035970      2.497594527764933     17.723844444778681
Au      2.884284856393987      4.996548688443746     17.698066365802276
Au      5.769991334482229      4.993918976962166     17.706522805430364
Au      8.655697812570464      4.996548688443746     17.698066365802280
Hg      5.769991334482229      1.665653025092561     20.319246339251528
