37

Au      0.000000000000000      0.000000000000000     10.000000000000000
Au      2.884995667241114      0.000000000000000     10.000000000000000
Au      5.769991334482229      0.000000000000000     10.000000000000000
Au      1.442497833620557      2.498479537638842     10.000000000000000
Au      4.327493500861672      2.498479537638842     10.000000000000000
Au      7.212489168102786      2.498479537638842     10.000000000000000
Au      2.884995667241114      4.996959075277683     10.000000000000000
Au      5.769991334482229      4.996959075277683     10.000000000000000
Au      8.654987001723343      4.996959075277683     10.000000000000000
Au      1.439759602841582      0.836438858422854     12.579982176482142
Au      4.330231731640650      0.836438858422860     12.579982176482142
Au      7.212489168102787      0.832826512546283     12.609287893825934
Au      2.884995667241115      3.331306050185127     12.604871834152732
Au      5.768232066575354      3.327128499830822     12.579982176482149
Au      8.656746269630247      3.327128499830819     12.579982176482142
Au      4.322996002175821      5.830350792301698     12.579982176482167
Au      7.212489168102786      5.829785587823964     12.552618769169371
Au     10.101982334029755      5.830350792301705     12.579982176482153
Au     -0.000533431991276      1.665345047988805     15.135982801370982
Au      2.884995667241114      1.658740955495722     15.123592757542161
Au      5.770524766473507      1.665345047988811     15.135982801370982
Au      1.436511805756957      4.167588597529829     15.123592757542163
Au      4.333479528725280      4.167588597529838     15.123592757542188
Au      7.212489168102787      4.165627150686112     15.119657830460845
Au      2.884995667241115      6.663228054577775     15.135982801371012
Au      5.771285685619192      6.661864806392906     15.119657830460859
Au      8.653692650586384      6.661864806392903     15.119657830460859
Au      0.003951199922450     -0.002281226338849     17.722123117485861
Au      2.884995667241114      0.003512902139078     17.715008498192976
Au      5.766040134559767     -0.002281226338849     17.722123117485861
Au      1.442747410349151      2.498623630830272     17.693794140436481
Au      4.327243924133081      2.498623630830275     17.693794140436509
Au      7.212489168102786      2.503041990316543     17.722123117485772
Au      2.884995667241115      4.996670888894807     17.693794140436509
Au      5.766949071988772      4.995202624208143     17.715008498192976
Au      8.658029264216793      4.995202624208130     17.715008498192976
Hg      2.884995667241114     -1.665653025092561     20.300674402606496
