37

Au      0.000000000000000      0.000000000000000     10.000000000000000
Au      2.884995667241114      0.000000000000000     10.000000000000000
Au      5.769991334482229      0.000000000000000     10.000000000000000
Au      1.442497833620557      2.498479537638842     10.000000000000000
Au      4.327493500861672      2.498479537638842     10.000000000000000
Au      7.212489168102786      2.498479537638842     10.000000000000000
Au      2.884995667241114      4.996959075277683     10.000000000000000
Au      5.769991334482229      4.996959075277683     10.000000000000000
Au      8.654987001723343      4.996959075277683     10.000000000000000
Au      1.438785768757904      0.834969674193984     12.596472632479525
Au      4.327493500861672      0.832832156547940     12.594092294400641
Au      7.216201232965426      0.834969674193979     12.596472632479525
Au      2.883917441519894      3.330683536274737     12.556679725940825
Au      5.771069560203452      3.330683536274727     12.556679725940826
Au      8.654987001723343      3.327019726889727     12.596472632479525
Au      4.327493500861672      5.831030615644758     12.556679725940825
Au      7.212484280253965      5.829782765823150     12.594092294400641
Au     10.097489723192727      5.829782765823150     12.594092294400603
Au     -0.000000000000001      1.665653025092566     15.120099346492450
Au      2.888500166572961      1.666591876652625     15.131042608099438
Au      5.766486835150380      1.666591876652620     15.131042608099481
Au      1.445063152587869      4.166698122400300     15.131042608099454
Au      4.327493500861666      4.164132562731402     15.088115174576929
Au      7.209923849135454      4.166698122400309     15.131042608099454
Au      2.884056486876589      6.659107689141298     15.131042608099454
Au      5.770930514846755      6.659107689141286     15.131042608099454
Au      8.654987001723343      6.662612100370244     15.113111269223250
Au     -0.000000000000000     -0.003040098315526     17.706522805430293
Au      2.885706478088239     -0.000410386833926     17.698066365802354
Au      5.769280523635105     -0.000410386833928     17.698066365802372
Au      1.445130635991808      2.499999586796608     17.706522805430293
Au      4.327493500861672      2.500249557386661     17.723844444778653
Au      7.209856365731549      2.499999586796605     17.706522805430293
Au      2.886528549307927      4.996074065403771     17.723844444778653
Au      5.768458452415420      4.996074065403771     17.723844444778653
Au      8.654987001723343      4.997779848945549     17.698066365802383
Hg      4.327493500861672      4.164132562731402     20.319246339251496
