37

Au      0.000000000000000      0.000000000000000     10.000000000000000
Au      2.884995667241114      0.000000000000000     10.000000000000000
Au      5.769991334482229      0.000000000000000     10.000000000000000
Au      1.442497833620557      2.498479537638842     10.000000000000000
Au      4.327493500861672      2.498479537638842     10.000000000000000
Au      7.212489168102786      2.498479537638842     10.000000000000000
Au      2.884995667241114      4.996959075277683     10.000000000000000
Au      5.769991334482229      4.996959075277683     10.000000000000000
Au      8.654987001723343      4.996959075277683     10.000000000000000
Au      1.446995332306416      0.833391717024007     12.579982176482167
Au      4.322996002175818      0.833391717024009     12.579982176482167
Au      7.212489168102787      0.832826512546278     12.552618769169388
Au      2.884995667241119      3.331306050185110     12.609287893825913
Au      5.767253103703245      3.334918396061688     12.579982176482167
Au      8.657725232502330      3.334918396061684     12.579982176482167
Au      4.329252768768557      5.825608037469650     12.579982176482167
Au      7.212489168102786      5.829785587823966     12.604871834152695
Au     10.095725567437015      5.825608037469648     12.579982176482167
Au     -0.001294351136962      1.664905731115207     15.119657830460907
Au      2.884995667241108      1.666268979300084     15.135982801371005
Au      5.771285685619177      1.664905731115218     15.119657830460907
Au      1.443031265611842      4.163824585627642     15.135982801371005
Au      4.326960068870387      4.163824585627641     15.135982801371005
Au      7.212489168102787      4.157220493134547     15.123592757542113
Au      2.884995667241114      6.664106688324943     15.119657830460907
Au      5.764005306618622      6.666068135168664     15.123592757542113
Au      8.660973029586943      6.666068135168675     15.123592757542092
Au      0.003042262493454     -0.001756451069538     17.715008498192994
Au      2.884995667241114     -0.000288186382868     17.693794140436378
Au      5.766949071988779     -0.001756451069538     17.715008498192994
Au      1.438546633698108      2.496198311300001     17.722123117485918
Au      4.331444700784123      2.496198311299998     17.722123117485918
Au      7.212489168102786      2.501992439777929     17.715008498193029
Au      2.884995667241110      5.001521527955382     17.722123117485918
Au      5.770240911210822      4.997103168469127     17.693794140436378
Au      8.654737424994751      4.997103168469121     17.693794140436378
Hg     -1.442497833620558      0.832826512546279     20.300674402606532
