37

Au      0.000000000000000      0.000000000000000     10.000000000000000
Au      2.884995667241114      0.000000000000000     10.000000000000000
Au      5.769991334482229      0.000000000000000     10.000000000000000
Au      1.442497833620557      2.498479537638842     10.000000000000000
Au      4.327493500861672      2.498479537638842     10.000000000000000
Au      7.212489168102786      2.498479537638842     10.000000000000000
Au      2.884995667241114      4.996959075277683     10.000000000000000
Au      5.769991334482229      4.996959075277683     10.000000000000000
Au      8.654987001723343      4.996959075277683     10.000000000000000
Au      1.442497833620557      0.832826512546283     12.604871834152712
Au      4.325734232954797      0.828648962191979     12.579982176482167
Au      7.214248436009662      0.828648962191973     12.579982176482167
Au      2.880498168555256      3.331871254662860     12.579982176482167
Au      5.769991334482229      3.331306050185122     12.552618769169360
Au      8.659484500409178      3.331871254662859     12.579982176482167
Au      4.324755270082696      5.833397933700541     12.579982176482167
Au      7.215227398881761      5.833397933700546     12.579982176482167
Au     10.097484835343900      5.829785587823964     12.609287893825927
Au     -0.005986027863603      1.669109059890988     15.123592757542156
Au      2.890981695104713      1.669109059890990     15.123592757542157
Au      5.769991334482229      1.667147613047258     15.119657830460861
Au      1.442497833620554      4.164748516938935     15.135982801371048
Au      4.328787851998631      4.163385268754054     15.119657830460861
Au      7.211194816965836      4.163385268754055     15.119657830460852
Au      2.884462235249829      6.662304123266484     15.135982801371043
Au      5.769991334482229      6.655700030773401     15.123592757542154
Au      8.655520433714623      6.662304123266493     15.135982801371048
Au      0.000249576728591      0.000144093191432     17.693794140436534
Au      2.884746090512519      0.000144093191436     17.693794140436484
Au      5.769991334482229      0.004562452677691     17.722123117485911
Au      1.442497833620551      2.498191351255961     17.693794140436509
Au      4.324451238368212      2.496723086569296     17.715008498192944
Au      7.215531430596235      2.496723086569291     17.715008498192944
Au      2.888946867163566      4.994677848938823     17.722123117485911
Au      5.769991334482229      5.000471977416760     17.715008498192880
Au      8.651035801800898      4.994677848938838     17.722123117485911
Hg      5.769991334482229      3.331306050185122     20.300674402606429
