37

Au      0.000000000000000      0.000000000000000     10.000000000000000
Au      2.884995667241114      0.000000000000000     10.000000000000000
Au      5.769991334482229      0.000000000000000     10.000000000000000
Au      1.442497833620557      2.498479537638842     10.000000000000000
Au      4.327493500861672      2.498479537638842     10.000000000000000
Au      7.212489168102786      2.498479537638842     10.000000000000000
Au      2.884995667241114      4.996959075277683     10.000000000000000
Au      5.769991334482229      4.996959075277683     10.000000000000000
Au      8.654987001723343      4.996959075277683     10.000000000000000
Au      1.438000334934704      0.833391717024002     12.579982176482160
Au      4.327493500861672      0.832826512546271     12.552618769169383
Au      7.216986666788634      0.833391717024009     12.579982176482160
Au      2.882257436462135      3.334918396061682     12.579982176482160
Au      5.772729565261212      3.334918396061685     12.579982176482160
Au      8.654987001723343      3.331306050185114     12.609287893825970
Au      4.327493500861672      5.829785587823950     12.604871834152711
Au      7.210729900195910      5.825608037469651     12.579982176482160
Au     10.099244103250770      5.825608037469653     12.579982176482147
Au     -0.000000000000003      1.666268979300084     15.135982801371036
Au      2.886290018378065      1.664905731115215     15.119657830460881
Au      5.768696983345272      1.664905731115217     15.119657830460881
Au      1.441964401629275      4.163824585627642     15.135982801371028
Au      4.327493500861672      4.157220493134556     15.123592757542141
Au      7.213022600094068      4.163824585627644     15.135982801371036
Au      2.879009639377520      6.666068135168662     15.123592757542129
Au      5.775977362345834      6.666068135168675     15.123592757542141
Au      8.654987001723343      6.664106688324940     15.119657830460865
Au     -0.000000000000002     -0.000288186382869     17.693794140436456
Au      2.881953404747661     -0.001756451069533     17.715008498192933
Au      5.773033596975680     -0.001756451069537     17.715008498192919
Au      1.446449033543006      2.496198311299999     17.722123117485960
Au      4.327493500861672      2.501992439777924     17.715008498192940
Au      7.208537968180331      2.496198311299997     17.722123117485960
Au      2.885245243969706      4.997103168469123     17.693794140436456
Au      5.769741757753634      4.997103168469135     17.693794140436456
Au      8.654987001723343      5.001521527955386     17.722123117485960
Hg      4.327493500861672      0.832826512546279     20.300674402606440
