37

Au      0.000000000000000      0.000000000000000     10.000000000000000
Au      2.884995667241114      0.000000000000000     10.000000000000000
Au      5.769991334482229      0.000000000000000     10.000000000000000
Au      1.442497833620557      2.498479537638842     10.000000000000000
Au      4.327493500861672      2.498479537638842     10.000000000000000
Au      7.212489168102786      2.498479537638842     10.000000000000000
Au      2.884995667241114      4.996959075277683     10.000000000000000
Au      5.769991334482229      4.996959075277683     10.000000000000000
Au      8.654987001723343      4.996959075277683     10.000000000000000
Au      1.440738565713682      0.828648962191982     12.579982176482167
Au      4.329252768768562      0.828648962191978     12.579982176482179
Au      7.212489168102787      0.832826512546282     12.604871834152723
Au      2.884995667241124      3.331306050185117     12.552618769169376
Au      5.774488833168090      3.331871254662852     12.579982176482167
Au      8.650489503037496      3.331871254662852     12.579982176482167
Au      4.330231731640653      5.833397933700532     12.579982176482179
Au      7.212489168102786      5.829785587823964     12.609287893825893
Au     10.094746604564934      5.833397933700530     12.579982176482179
Au      0.005986027863597      1.669109059890989     15.123592757542161
Au      2.884995667241114      1.667147613047268     15.119657830460906
Au      5.764005306618629      1.669109059890993     15.123592757542161
Au      1.443792184757512      4.163385268754059     15.119657830460904
Au      4.326199149724714      4.163385268754065     15.119657830460902
Au      7.212489168102787      4.164748516938932     15.135982801370977
Au      2.884995667241120      6.655700030773396     15.123592757542175
Au      5.770524766473518      6.662304123266493     15.135982801371004
Au      8.654453569732063      6.662304123266493     15.135982801371005
Au     -0.000249576728591      0.000144093191437     17.693794140436466
Au      2.884995667241114      0.004562452677700     17.722123117485879
Au      5.770240911210825      0.000144093191435     17.693794140436466
Au      1.439455571127108      2.496723086569305     17.715008498192969
Au      4.330535763355127      2.496723086569302     17.715008498192994
Au      7.212489168102786      2.498191351255965     17.693794140436463
Au      2.884995667241114      5.000471977416757     17.715008498192965
Au      5.766040134559782      4.994677848938834     17.722123117485857
Au      8.658938201645787      4.994677848938836     17.722123117485857
Hg      2.884995667241114      3.331306050185122     20.300674402606518
