37

Au      0.000000000000000      0.000000000000000     10.000000000000000
Au      2.884995667241114      0.000000000000000     10.000000000000000
Au      5.769991334482229      0.000000000000000     10.000000000000000
Au      1.442497833620557      2.498479537638842     10.000000000000000
Au      4.327493500861672      2.498479537638842     10.000000000000000
Au      7.212489168102786      2.498479537638842     10.000000000000000
Au      2.884995667241114      4.996959075277683     10.000000000000000
Au      5.769991334482229      4.996959075277683     10.000000000000000
Au      8.654987001723343      4.996959075277683     10.000000000000000
Au      1.446209898483204      0.834969674193982     12.596472632479539
Au      4.323781435999027      0.834969674193981     12.596472632479555
Au      7.212489168102787      0.832832156547932     12.594092294400628
Au      2.884995667241106      3.327019726889726     12.596472632479527
Au      5.768913108761001      3.330683536274724     12.556679725940837
Au      8.656065227444573      3.330683536274726     12.556679725940837
Au      4.327498388710483      5.829782765823135     12.594092294400632
Au      7.212489168102786      5.831030615644753     12.556679725940837
Au     10.097479947495076      5.829782765823139     12.594092294400621
Au     -0.003504499331840      1.666591876652625     15.131042608099465
Au      2.884995667241114      1.665653025092559     15.120099346492511
Au      5.773495833814086      1.666591876652626     15.131042608099461
Au      1.439932514653238      4.166698122400296     15.131042608099465
Au      4.330058819829000      4.166698122400289     15.131042608099465
Au      7.212489168102787      4.164132562731402     15.088115174576972
Au      2.884995667241120      6.662612100370244     15.113111269223214
Au      5.769052154117718      6.659107689141282     15.131042608099456
Au      8.655926182087875      6.659107689141289     15.131042608099468
Au     -0.000710810847126     -0.000410386833936     17.698066365802308
Au      2.884995667241119     -0.003040098315533     17.706522805430332
Au      5.770702145329371     -0.000410386833934     17.698066365802305
Au      1.439865031249314      2.499999586796598     17.706522805430332
Au      4.330126303232914      2.499999586796595     17.706522805430332
Au      7.212489168102786      2.500249557386658     17.723844444778656
Au      2.884995667241118      4.997779848945546     17.698066365802287
Au      5.771524216549045      4.996074065403762     17.723844444778656
Au      8.653454119656526      4.996074065403768     17.723844444778656
Hg      7.212489168102786      4.164132562731402     20.319246339251535
