37

Au      0.000000000000000      0.000000000000000     10.000000000000000
Au      2.884995667241114      0.000000000000000     10.000000000000000
Au      5.769991334482229      0.000000000000000     10.000000000000000
Au      1.442497833620557      2.498479537638842     10.000000000000000
Au      4.327493500861672      2.498479537638842     10.000000000000000
Au      7.212489168102786      2.498479537638842     10.000000000000000
Au      2.884995667241114      4.996959075277683     10.000000000000000
Au      5.769991334482229      4.996959075277683     10.000000000000000
Au      8.654987001723343      4.996959075277683     10.000000000000000
Au      1.442497833620551      0.832826512546274     12.552618769169385
Au      4.331990999547528      0.833391717024015     12.579982176482179
Au      7.207991669416926      0.833391717024014     12.579982176482144
Au      2.887733898020091      3.334918396061695     12.579982176482174
Au      5.769991334482229      3.331306050185122     12.609287893825961
Au      8.652248770944359      3.334918396061702     12.579982176482144
Au      4.325734232954787      5.825608037469650     12.579982176482185
Au      7.214248436009669      5.825608037469665     12.579982176482170
Au     10.097484835343900      5.829785587823964     12.604871834152714
Au      0.001294351136957      1.664905731115221     15.119657830460882
Au      2.883701316104160      1.664905731115222     15.119657830460913
Au      5.769991334482229      1.666268979300093     15.135982801371041
Au      1.442497833620566      4.157220493134556     15.123592757542134
Au      4.328026932852969      4.163824585627644     15.135982801371041
Au      7.211955736111516      4.163824585627647     15.135982801371053
Au      2.890981695104717      6.666068135168672     15.123592757542124
Au      5.769991334482236      6.664106688324948     15.119657830460904
Au      8.649000973859748      6.666068135168682     15.123592757542124
Au     -0.003042262493455     -0.001756451069528     17.715008498192898
Au      2.888037929734566     -0.001756451069532     17.715008498192898
Au      5.769991334482229     -0.000288186382865     17.693794140436435
Au      1.442497833620558      2.501992439777930     17.715008498192962
Au      4.323542300939214      2.496198311300005     17.722123117485982
Au      7.216440368025238      2.496198311300008     17.722123117485982
Au      2.884746090512520      4.997103168469136     17.693794140436435
Au      5.769991334482238      5.001521527955396     17.722123117485982
Au      8.655236578451937      4.997103168469139     17.693794140436435
Hg      1.442497833620557      0.832826512546280     20.300674402606443
