37

Au      0.000000000000000      0.000000000000000     10.000000000000000
Au      2.884995667241114      0.000000000000000     10.000000000000000
Au      5.769991334482229      0.000000000000000     10.000000000000000
Au      1.442497833620557      2.498479537638842     10.000000000000000
Au      4.327493500861672      2.498479537638842     10.000000000000000
Au      7.212489168102786      2.498479537638842     10.000000000000000
Au      2.884995667241114      4.996959075277683     10.000000000000000
Au      5.769991334482229      4.996959075277683     10.000000000000000
Au      8.654987001723343      4.996959075277683     10.000000000000000
Au      1.441419607899324      0.832203998635886     12.556679725940837
Au      4.328571726582874      0.832203998635885     12.556679725940837
Au      7.212489168102778      0.828540189250880     12.596472632479546
Au      2.884995667241097      3.332551078005913     12.556679725940837
Au      5.769986446633397      3.331303228184294     12.594092294400655
Au      8.654991889572155      3.331303228184294     12.594092294400628
Au      4.323781435999010      5.831928749471656     12.596472632479546
Au      7.212489168102775      5.829791231825623     12.594092294400628
Au     10.101196900206540      5.831928749471656     12.596472632479546
Au      0.002565318967310      1.668218584761456     15.131042608099488
Au      2.884995667241108      1.665653025092565     15.088115174576979
Au      5.767426015514910      1.668218584761459     15.131042608099488
Au      1.441558653256023      4.160628151502451     15.131042608099465
Au      4.328432681226204      4.160628151502454     15.131042608099488
Au      7.212489168102787      4.164132562731402     15.113111269223300
Au      2.884995667241113      6.662612100370244     15.120099346492481
Au      5.773495833814073      6.663550951930304     15.131042608099488
Au      8.651482502391492      6.663550951930311     15.131042608099465
Au      0.002632802371245      0.001520049157767     17.706522805430282
Au      2.884995667241114      0.001770019747826     17.723844444778607
Au      5.767358532110983      0.001520049157763     17.706522805430282
Au      1.444030715687374      2.497594527764935     17.723844444778607
Au      4.325960618794860      2.497594527764931     17.723844444778607
Au      7.212489168102786      2.499300311306706     17.698066365802415
Au      2.884995667241113      4.993918976962163     17.706522805430282
Au      5.770702145329347      4.996548688443764     17.698066365802415
Au      8.654276190876200      4.996548688443749     17.698066365802383
Hg      2.884995667241114      1.665653025092561     20.319246339251496
