37

Au      0.000000000000000      0.000000000000000     10.000000000000000
Au      2.884995667241114      0.000000000000000     10.000000000000000
Au      5.769991334482229      0.000000000000000     10.000000000000000
Au      1.442497833620557      2.498479537638842     10.000000000000000
Au      4.327493500861672      2.498479537638842     10.000000000000000
Au      7.212489168102786      2.498479537638842     10.000000000000000
Au      2.884995667241114      4.996959075277683     10.000000000000000
Au      5.769991334482229      4.996959075277683     10.000000000000000
Au      8.654987001723343      4.996959075277683     10.000000000000000
Au      1.442497833620561      0.832826512546282     12.609287893825934
Au      4.324755270082701      0.836438858422854     12.579982176482154
Au      7.215227398881757      0.836438858422849     12.579982176482154
Au      2.886754935147999      3.327128499830818     12.579982176482165
Au      5.769991334482229      3.331306050185122     12.604871834152732
Au      8.653227733816450      3.327128499830820     12.579982176482169
Au      4.331990999547534      5.830350792301697     12.579982176482160
Au      7.207991669416929      5.830350792301694     12.579982176482169
Au     10.097484835343900      5.829785587823964     12.552618769169355
Au      0.000533431991276      1.665345047988802     15.135982801371005
Au      2.884462235249845      1.665345047988804     15.135982801371030
Au      5.769991334482229      1.658740955495717     15.123592757542202
Au      1.442497833620557      4.165627150686099     15.119657830460868
Au      4.321507472998078      4.167588597529822     15.123592757542193
Au      7.218475195966388      4.167588597529824     15.123592757542179
Au      2.883701316104157      6.661864806392896     15.119657830460870
Au      5.769991334482229      6.663228054577761     15.135982801371020
Au      8.656281352860313      6.661864806392887     15.119657830460870
Au     -0.003951199922454     -0.002281226338846     17.722123117485875
Au      2.888946867163563     -0.002281226338848     17.722123117485875
Au      5.769991334482229      0.003512902139085     17.715008498192908
Au      1.442497833620559      2.503041990316541     17.722123117485875
Au      4.327743077590266      2.498623630830281     17.693794140436559
Au      7.212239591374193      2.498623630830281     17.693794140436548
Au      2.888037929734563      4.995202624208144     17.715008498192908
Au      5.769991334482229      4.996670888894807     17.693794140436548
Au      8.651944739229890      4.995202624208144     17.715008498192908
Hg      5.769991334482229     -1.665653025092561     20.300674402606422
