37

Au      0.000000000000000      0.000000000000000     10.000000000000000
Au      2.884995667241114      0.000000000000000     10.000000000000000
Au      5.769991334482229      0.000000000000000     10.000000000000000
Au      1.442497833620557      2.498479537638842     10.000000000000000
Au      4.327493500861672      2.498479537638842     10.000000000000000
Au      7.212489168102786      2.498479537638842     10.000000000000000
Au      2.884995667241114      4.996959075277683     10.000000000000000
Au      5.769991334482229      4.996959075277683     10.000000000000000
Au      8.654987001723343      4.996959075277683     10.000000000000000
Au      1.442502721469367      0.832823690545451     12.594092294400602
Au      4.327493500861672      0.834071540367070     12.556679725940816
Au      7.212484280253978      0.832823690545452     12.594092294400602
Au      2.888707732103764      3.333449211832820     12.596472632479568
Au      5.766279269619583      3.333449211832818     12.596472632479568
Au      8.654987001723343      3.331311694186777     12.594092294400602
Au      4.327493500861672      5.825499264528564     12.596472632479536
Au      7.211410942381570      5.829163073913564     12.556679725940816
Au     10.098563061065143      5.829163073913565     12.556679725940816
Au     -0.000000000000006      1.665653025092567     15.113111269223234
Au      2.884056486876589      1.662148613863600     15.131042608099456
Au      5.770930514846754      1.662148613863599     15.131042608099456
Au      1.438993334288710      4.165071414291479     15.131042608099447
Au      4.327493500861672      4.164132562731402     15.120099346492484
Au      7.215993667434641      4.165071414291468     15.131042608099456
Au      2.882430348273787      6.665177660039128     15.131042608099456
Au      5.772556653449546      6.665177660039141     15.131042608099456
Au      8.654987001723343      6.662612100370244     15.088115174576913
Au     -0.000000000000002      0.000820773667864     17.698066365802301
Au      2.886528549307932     -0.000885009873911     17.723844444778663
Au      5.768458452415412     -0.000885009873910     17.723844444778663
Au      1.441787022773430      2.498069150804914     17.698066365802301
Au      4.327493500861672      2.495439439323325     17.706522805430343
Au      7.213199978949918      2.498069150804908     17.698066365802379
Au      2.882362864869870      4.998479124435445     17.706522805430343
Au      5.772624136853477      4.998479124435445     17.706522805430343
Au      8.654987001723343      4.998729095025503     17.723844444778663
Hg      4.327493500861672     -0.832826512546280     20.319246339251507
