37

Au      0.000000000000000      0.000000000000000     10.000000000000000
Au      2.884995667241114      0.000000000000000     10.000000000000000
Au      5.769991334482229      0.000000000000000     10.000000000000000
Au      1.442497833620557      2.498479537638842     10.000000000000000
Au      4.327493500861672      2.498479537638842     10.000000000000000
Au      7.212489168102786      2.498479537638842     10.000000000000000
Au      2.884995667241114      4.996959075277683     10.000000000000000
Au      5.769991334482229      4.996959075277683     10.000000000000000
Au      8.654987001723343      4.996959075277683     10.000000000000000
Au      1.442607627263608      0.832889901935654     12.612386458825462
Au      4.327493500861672      0.826328477964215     12.567413173766008
Au      7.212379374459736      0.832889901935652     12.612386458825462
Au      2.879368204218382      3.334555067476150     12.567413173765996
Au      5.775618797504961      3.334555067476149     12.567413173765996
Au      8.654987001723343      3.330461986130199     12.528143352817455
Au      4.327493500861672      5.829658809045217     12.612386458825462
Au      7.211758187188801      5.830207619851423     12.528143352817455
Au     10.098215816257881      5.830207619851423     12.528143352817455
Au      0.000000000000001      1.668842270238018     15.158531348998226
Au      2.887518725987821      1.667109713739141     15.146416517866571
Au      5.767468275735527      1.667109713739143     15.146416517866571
Au      1.444512603159907      4.162969334995495     15.080257842505699
Au      4.327493500861672      4.161219185438203     15.146416517866568
Au      7.210474398563434      4.162969334995494     15.080257842505699
Au      2.882233699926243      6.661017477797500     15.158531348998226
Au      5.772753301797101      6.661017477797499     15.158531348998226
Au      8.654987001723343      6.664938555842029     15.080257842505699
Au      0.000000000000007     -0.000000000000013     17.705340166314937
Au      2.887061755556498     -0.002216352381417     17.725450706883201
Au      5.767925246166856     -0.002216352381414     17.725450706883201
Au      1.441611460312208      2.501376998797118     17.725450706883201
Au      4.327493500861672      2.498479537638830     17.711431622218644
Au      7.213375541411138      2.501376998797117     17.725450706883201
Au      2.882043205617388      4.996277966500798     17.725450706883201
Au      5.772943796105959      4.996277966500797     17.725450706883201
Au      8.654987001723343      4.996959075277683     17.547884726473786
Hg      8.654987001723343      4.996959075277683     20.544711967523863
