37

Au      0.000000000000000      0.000000000000000     10.000000000000000
Au      2.884995667241114      0.000000000000000     10.000000000000000
Au      5.769991334482229      0.000000000000000     10.000000000000000
Au      1.442497833620557      2.498479537638842     10.000000000000000
Au      4.327493500861672      2.498479537638842     10.000000000000000
Au      7.212489168102786      2.498479537638842     10.000000000000000
Au      2.884995667241114      4.996959075277683     10.000000000000000
Au      5.769991334482229      4.996959075277683     10.000000000000000
Au      8.654987001723343      4.996959075277683     10.000000000000000
Au      1.442497833620558      0.831982448491353     12.528143352817469
Au      4.321866037838941      0.836075529837299     12.567413173765992
Au      7.218116631125517      0.836075529837302     12.567413173765992
Au      2.885726648155103      3.331728082212585     12.528143352817443
Au      5.769991334482229      3.331179271406373     12.612386458825425
Au      8.654256020809365      3.331728082212579     12.528143352817443
Au      4.327383707218616      5.829848977213331     12.612386458825469
Au      7.212598961745845      5.829848977213329     12.612386458825469
Au     10.097484835343900      5.823287553241901     12.567413173766013
Au     -0.002014769539349      1.664489797356661     15.080257842505683
Au      2.887010436780459      1.664489797356662     15.080257842505683
Au      5.769991334482229      1.662739647799374     15.146416517866530
Au      1.442497833620557      4.166459018203190     15.080257842505683
Au      4.324731533546798      4.162537940158670     15.158531348998192
Au      7.215251135417660      4.162537940158655     15.158531348998192
Au      2.882472608494413      6.664068789016838     15.146416517866573
Au      5.769991334482234      6.665801345515705     15.158531348998199
Au      8.657510060470065      6.664068789016834     15.146416517866573
Au      0.000886373308349      0.002897461158274     17.725450706883180
Au      2.884109293932770      0.002897461158279     17.725450706883180
Au      5.769991334482229     -0.000000000000017     17.711431622218608
Au      1.442497833620557      2.498479537638830     17.547884726473743
Au      4.324541039237948      2.497798428861956     17.725450706883173
Au      7.215441629726515      2.497798428861951     17.725450706883173
Au      2.882929578925735      4.994742722896263     17.725450706883180
Au      5.769991334482229      4.996959075277683     17.705340166314858
Au      8.657053090038721      4.994742722896263     17.725450706883180
Hg      1.442497833620557      2.498479537638842     20.544711967523810
