37

Au      0.000000000000000      0.000000000000000     10.000000000000000
Au      2.884995667241114      0.000000000000000     10.000000000000000
Au      5.769991334482229      0.000000000000000     10.000000000000000
Au      1.442497833620557      2.498479537638842     10.000000000000000
Au      4.327493500861672      2.498479537638842     10.000000000000000
Au      7.212489168102786      2.498479537638842     10.000000000000000
Au      2.884995667241114      4.996959075277683     10.000000000000000
Au      5.769991334482229      4.996959075277683     10.000000000000000
Au      8.654987001723343      4.996959075277683     10.000000000000000
Au      1.441766852706573      0.833248544573721     12.528143352817446
Au      4.328224481775659      0.833248544573729     12.528143352817462
Au      7.212489168102787      0.832699733767524     12.612386458825499
Au      2.884995667241114      3.324808015603030     12.567413173766012
Au      5.769881540839178      3.331369439574484     12.612386458825505
Au      8.655096795366386      3.331369439574476     12.612386458825499
Au      4.333120963884417      5.833034605114986     12.567413173766019
Au      7.212489168102786      5.828941523769034     12.528143352817452
Au     10.091857372321154      5.833034605114986     12.567413173766019
Au      0.002761967314870      1.664058402519807     15.158531348998276
Au      2.884995667241107      1.667979480564341     15.080257842505670
Au      5.767229367167358      1.664058402519805     15.158531348998272
Au      1.445020892367266      4.165589251377975     15.146416517866566
Au      4.324970442114966      4.165589251377977     15.146416517866596
Au      7.212489168102787      4.167321807876849     15.158531348998252
Au      2.884995667241108      6.659698723077038     15.146416517866566
Au      5.767976564942874      6.661448872634324     15.080257842505683
Au      8.657001771262692      6.661448872634326     15.080257842505681
Au      0.002952461623718     -0.000681108776876     17.725450706883287
Au      2.884995667241106     -0.000000000000001     17.547884726473701
Au      5.767038872858498     -0.000681108776877     17.725450706883287
Au      1.444563921935927      2.496263185257433     17.725450706883287
Au      4.325427412546288      2.496263185257432     17.725450706883237
Au      7.212489168102786      2.498479537638842     17.705340166314986
Au      2.884995667241106      4.996959075277683     17.711431622218594
Au      5.770877707790573      4.999856536435962     17.725450706883287
Au      8.654100628414991      4.999856536435966     17.725450706883279
Hg      2.884995667241114     -0.000000000000000     20.544711967523678
