37

Au      0.000000000000000      0.000000000000000     10.000000000000000
Au      2.884995667241114      0.000000000000000     10.000000000000000
Au      5.769991334482229      0.000000000000000     10.000000000000000
Au      1.442497833620557      2.498479537638842     10.000000000000000
Au      4.327493500861672      2.498479537638842     10.000000000000000
Au      7.212489168102786      2.498479537638842     10.000000000000000
Au      2.884995667241114      4.996959075277683     10.000000000000000
Au      5.769991334482229      4.996959075277683     10.000000000000000
Au      8.654987001723343      4.996959075277683     10.000000000000000
Au      1.443228814534538      0.833248544573733     12.528143352817450
Au      4.327493500861672      0.832699733767530     12.612386458825481
Au      7.211758187188804      0.833248544573730     12.528143352817450
Au      2.884885873598061      3.331369439574489     12.612386458825481
Au      5.770101128125285      3.331369439574488     12.612386458825481
Au      8.654987001723343      3.324808015603033     12.567413173766017
Au      4.327493500861672      5.828941523769042     12.528143352817450
Au      7.206861705080035      5.833034605114997     12.567413173766017
Au     10.103112298366653      5.833034605114997     12.567413173766017
Au     -0.000000000000002      1.667979480564342     15.080257842505711
Au      2.882233699926249      1.664058402519824     15.158531348998233
Au      5.772753301797091      1.664058402519823     15.158531348998233
Au      1.439974774873841      4.165589251377988     15.146416517866617
Au      4.327493500861672      4.167321807876863     15.158531348998233
Au      7.215012226849500      4.165589251377988     15.146416517866617
Au      2.882980897701768      6.661448872634343     15.080257842505711
Au      5.772006104021574      6.661448872634344     15.080257842505711
Au      8.654987001723343      6.659698723077041     15.146416517866617
Au      0.000000000000007      0.000000000000002     17.547884726473836
Au      2.882043205617395     -0.000681108776872     17.725450706883205
Au      5.772943796105952     -0.000681108776873     17.725450706883205
Au      1.440431745305185      2.496263185257436     17.725450706883205
Au      4.327493500861672      2.498479537638842     17.705340166315050
Au      7.214555256418159      2.496263185257436     17.725450706883205
Au      2.885882040549465      4.999856536435964     17.725450706883205
Au      5.769104961173886      4.999856536435964     17.725450706883205
Au      8.654987001723343      4.996959075277683     17.711431622218750
Hg      0.000000000000000      0.000000000000000     20.544711967523870
