37

Au      0.000000000000000      0.000000000000000     10.000000000000000
Au      2.884995667241114      0.000000000000000     10.000000000000000
Au      5.769991334482229      0.000000000000000     10.000000000000000
Au      1.442497833620557      2.498479537638842     10.000000000000000
Au      4.327493500861672      2.498479537638842     10.000000000000000
Au      7.212489168102786      2.498479537638842     10.000000000000000
Au      2.884995667241114      4.996959075277683     10.000000000000000
Au      5.769991334482229      4.996959075277683     10.000000000000000
Au      8.654987001723343      4.996959075277683     10.000000000000000
Au      1.436870370597825      0.836075529837304     12.567413173765992
Au      4.333120963884401      0.836075529837304     12.567413173766010
Au      7.212489168102787      0.831982448491351     12.528143352817468
Au      2.884995667241122      3.331179271406377     12.612386458825448
Au      5.769260353568247      3.331728082212580     12.528143352817464
Au      8.655717982637332      3.331728082212574     12.528143352817468
Au      4.327603294504724      5.829848977213331     12.612386458825458
Au      7.212489168102786      5.823287553241901     12.567413173766010
Au     10.097375041700849      5.829848977213334     12.612386458825458
Au      0.002014769539358      1.664489797356660     15.080257842505681
Au      2.884995667241120      1.662739647799373     15.146416517866543
Au      5.767976564942889      1.664489797356659     15.080257842505661
Au      1.439735866305688      4.162537940158666     15.158531348998224
Au      4.330255468176543      4.162537940158660     15.158531348998224
Au      7.212489168102787      4.166459018203207     15.080257842505681
Au      2.884995667241117      6.665801345515702     15.158531348998224
Au      5.772514393228935      6.664068789016837     15.146416517866543
Au      8.652463942976642      6.664068789016838     15.146416517866543
Au     -0.000886373308347      0.002897461158281     17.725450706883219
Au      2.884995667241114     -0.000000000000012     17.711431622218562
Au      5.770877707790575      0.002897461158284     17.725450706883219
Au      1.439545371996828      2.497798428861958     17.725450706883219
Au      4.330445962485395      2.497798428861958     17.725450706883219
Au      7.212489168102786      2.498479537638833     17.547884726473661
Au      2.884995667241114      4.996959075277683     17.705340166314929
Au      5.772057422797609      4.994742722896263     17.725450706883219
Au      8.652920913407963      4.994742722896264     17.725450706883219
Hg      7.212489168102786      2.498479537638842     20.544711967523636
