37

Au      0.000000000000000      0.000000000000000     10.000000000000000
Au      2.884995667241114      0.000000000000000     10.000000000000000
Au      5.769991334482229      0.000000000000000     10.000000000000000
Au      1.442497833620557      2.498479537638842     10.000000000000000
Au      4.327493500861672      2.498479537638842     10.000000000000000
Au      7.212489168102786      2.498479537638842     10.000000000000000
Au      2.884995667241114      4.996959075277683     10.000000000000000
Au      5.769991334482229      4.996959075277683     10.000000000000000
Au      8.654987001723343      4.996959075277683     10.000000000000000
Au      1.442388039977504      0.832889901935651     12.612386458825503
Au      4.327603294504723      0.832889901935656     12.612386458825503
Au      7.212489168102787      0.826328477964215     12.567413173766013
Au      2.884995667241114      3.330461986130199     12.528143352817445
Au      5.764363871459503      3.334555067476155     12.567413173766029
Au      8.660614464746070      3.334555067476155     12.567413173766001
Au      4.328224481775652      5.830207619851424     12.528143352817448
Au      7.212489168102786      5.829658809045217     12.612386458825474
Au     10.096753854429922      5.830207619851424     12.528143352817448
Au     -0.002523058746712      1.667109713739150     15.146416517866578
Au      2.884995667241114      1.668842270238025     15.158531348998235
Au      5.772514393228938      1.667109713739151     15.146416517866578
Au      1.440483064081204      4.162969334995494     15.080257842505674
Au      4.329508270401023      4.162969334995497     15.080257842505688
Au      7.212489168102787      4.161219185438208     15.146416517866577
Au      2.884995667241114      6.664938555842045     15.080257842505715
Au      5.767229367167359      6.661017477797503     15.158531348998228
Au      8.657748969038220      6.661017477797503     15.158531348998228
Au     -0.002066088315374     -0.002216352381414     17.725450706883244
Au      2.884995667241114     -0.000000000000010     17.705340166314908
Au      5.772057422797606     -0.002216352381411     17.725450706883244
Au      1.443384206928906      2.501376998797125     17.725450706883240
Au      4.326607127553316      2.501376998797119     17.725450706883240
Au      7.212489168102786      2.498479537638842     17.711431622218726
Au      2.884995667241114      4.996959075277683     17.547884726473722
Au      5.767038872858506      4.996277966500801     17.725450706883240
Au      8.657939463347077      4.996277966500807     17.725450706883240
Hg      2.884995667241114      4.996959075277683     20.544711967523714
