37

Au      0.000000000000000      0.000000000000000     10.000000000000000
Au      2.884995667241114      0.000000000000000     10.000000000000000
Au      5.769991334482229      0.000000000000000     10.000000000000000
Au      1.442497833620557      2.498479537638842     10.000000000000000
Au      4.327493500861672      2.498479537638842     10.000000000000000
Au      7.212489168102786      2.498479537638842     10.000000000000000
Au      2.884995667241114      4.996959075277683     10.000000000000000
Au      5.769991334482229      4.996959075277683     10.000000000000000
Au      8.654987001723343      4.996959075277683     10.000000000000000
Au      1.442497833620557      0.832699733767535     12.612386458825467
Au      4.326762519947684      0.833248544573737     12.528143352817455
Au      7.213220149016774      0.833248544573738     12.528143352817438
Au      2.885105460884168      3.331369439574490     12.612386458825467
Au      5.769991334482229      3.324808015603055     12.567413173765999
Au      8.654877208080300      3.331369439574488     12.612386458825467
Au      4.321866037838930      5.833034605114991     12.567413173765999
Au      7.218116631125527      5.833034605114991     12.567413173765981
Au     10.097484835343900      5.828941523769036     12.528143352817475
Au     -0.002761967314870      1.664058402519814     15.158531348998249
Au      2.887757634555972      1.664058402519820     15.158531348998249
Au      5.769991334482229      1.667979480564337     15.080257842505651
Au      1.442497833620550      4.167321807876851     15.158531348998249
Au      4.330016559608377      4.165589251377982     15.146416517866546
Au      7.209966109356074      4.165589251377983     15.146416517866546
Au      2.887010436780457      6.661448872634342     15.080257842505677
Au      5.769991334482224      6.659698723077041     15.146416517866546
Au      8.652972232183988      6.661448872634339     15.080257842505668
Au     -0.002952461623729     -0.000681108776874     17.725450706883169
Au      2.887948128864839     -0.000681108776868     17.725450706883169
Au      5.769991334482229      0.000000000000003     17.547884726473733
Au      1.442497833620556      2.498479537638848     17.705340166315043
Au      4.329559589177049      2.496263185257438     17.725450706883169
Au      7.210423079787408      2.496263185257436     17.725450706883169
Au      2.884109293932762      4.999856536435967     17.725450706883169
Au      5.769991334482229      4.996959075277683     17.711431622218583
Au      8.655873375031689      4.999856536435967     17.725450706883169
Hg      5.769991334482229     -0.000000000000000     20.544711967523789
