37

Au      0.000000000000000      0.000000000000000     10.000000000000000
Au      2.884995667241114      0.000000000000000     10.000000000000000
Au      5.769991334482229      0.000000000000000     10.000000000000000
Au      1.442497833620557      2.498479537638842     10.000000000000000
Au      4.327493500861672      2.498479537638842     10.000000000000000
Au      7.212489168102786      2.498479537638842     10.000000000000000
Au      2.884995667241114      4.996959075277683     10.000000000000000
Au      5.769991334482229      4.996959075277683     10.000000000000000
Au      8.654987001723343      4.996959075277683     10.000000000000000
Au      1.448125296643277      0.836075529837301     12.567413173765996
Au      4.327493500861672      0.831982448491349     12.528143352817468
Au      7.206861705080061      0.836075529837303     12.567413173765996
Au      2.884264686327126      3.331728082212574     12.528143352817466
Au      5.770722315396214      3.331728082212580     12.528143352817446
Au      8.654987001723343      3.331179271406380     12.612386458825464
Au      4.327493500861672      5.823287553241917     12.567413173766019
Au      7.212379374459733      5.829848977213332     12.612386458825453
Au     10.097594628986966      5.829848977213334     12.612386458825453
Au     -0.000000000000004      1.662739647799373     15.146416517866548
Au      2.882980897701755      1.664489797356654     15.080257842505695
Au      5.772006104021578      1.664489797356655     15.080257842505688
Au      1.445259800935430      4.162537940158663     15.158531348998245
Au      4.327493500861672      4.166459018203200     15.080257842505654
Au      7.209727200787913      4.162537940158661     15.158531348998219
Au      2.887518725987817      6.664068789016828     15.146416517866552
Au      5.767468275735526      6.664068789016823     15.146416517866552
Au      8.654987001723343      6.665801345515701     15.158531348998210
Au     -0.000000000000000      0.000000000000004     17.711431622218520
Au      2.885882040549463      0.002897461158288     17.725450706883183
Au      5.769104961173878      0.002897461158284     17.725450706883183
Au      1.445450295244283      2.497798428861966     17.725450706883226
Au      4.327493500861672      2.498479537638842     17.547884726473669
Au      7.209536706479049      2.497798428861966     17.725450706883183
Au      2.887061755556495      4.994742722896269     17.725450706883183
Au      5.767925246166844      4.994742722896269     17.725450706883226
Au      8.654987001723343      4.996959075277683     17.705340166314993
Hg      4.327493500861672      2.498479537638842     20.544711967523657
