37

Au      0.000000000000000      0.000000000000000     10.000000000000000
Au      2.884995667241114      0.000000000000000     10.000000000000000
Au      5.769991334482229      0.000000000000000     10.000000000000000
Au      1.442497833620557      2.498479537638842     10.000000000000000
Au      4.327493500861672      2.498479537638842     10.000000000000000
Au      7.212489168102786      2.498479537638842     10.000000000000000
Au      2.884995667241114      4.996959075277683     10.000000000000000
Au      5.769991334482229      4.996959075277683     10.000000000000000
Au      8.654987001723343      4.996959075277683     10.000000000000000
Au      1.442497833620554      0.826328477964233     12.567413173766003
Au      4.327383707218625      0.832889901935658     12.612386458825435
Au      7.212598961745847      0.832889901935650     12.612386458825439
Au      2.890623130263831      3.334555067476149     12.567413173765997
Au      5.769991334482229      3.330461986130196     12.528143352817462
Au      8.649359538700617      3.334555067476149     12.567413173766003
Au      4.326762519947686      5.830207619851428     12.528143352817462
Au      7.213220149016768      5.830207619851429     12.528143352817464
Au     10.097484835343900      5.829658809045233     12.612386458825423
Au      0.002523058746694      1.667109713739143     15.146416517866564
Au      2.882472608494410      1.667109713739150     15.146416517866497
Au      5.769991334482229      1.668842270238028     15.158531348998224
Au      1.442497833620552      4.161219185438225     15.146416517866479
Au      4.325478731322317      4.162969334995500     15.080257842505670
Au      7.214503937642129      4.162969334995496     15.080257842505688
Au      2.887757634555984      6.661017477797504     15.158531348998221
Au      5.769991334482229      6.664938555842038     15.080257842505679
Au      8.652225034408483      6.661017477797504     15.158531348998183
Au      0.002066088315381     -0.002216352381417     17.725450706883283
Au      2.882929578925728     -0.002216352381409     17.725450706883120
Au      5.769991334482229     -0.000000000000004     17.705340166314937
Au      1.442497833620555      2.498479537638842     17.711431622218491
Au      4.328379874170015      2.501376998797128     17.725450706883237
Au      7.211602794794428      2.501376998797125     17.725450706883283
Au      2.887948128864827      4.996277966500799     17.725450706883237
Au      5.769991334482208      4.996959075277683     17.547884726473612
Au      8.652034540099590      4.996277966500797     17.725450706883120
Hg      5.769991334482229      4.996959075277683     20.544711967523536
